MAPbI3                                  
   1.00000000000000     
     9.0993148931870458   -0.0026776601041531    0.0289980361064251
    -0.0024605591144607    8.7564610227641975   -0.1182358576380453
     0.0435166947361371   -0.1720608279976584   13.0334288526677575
   Pb   I    C    N    H 
     4    12     4     4    24
Direct
  0.2442195102209477  0.2298110516396046  0.2549619743325316
  0.2503966436742712  0.2381444980484689  0.7575954136698506
  0.7578686098941527  0.7309494051056106  0.2556135677777281
  0.7393157440034432  0.7391906857807120  0.7588635913747209
  0.0779578241368838  0.8972714855911765  0.2507240360155090
  0.9456661002825564  0.0390588053894180  0.7660910656566379
  0.2335676383297555  0.2295965552881010  0.0095854091638231
  0.2571842684558898  0.2217531053087710  0.5097961456848517
  0.4499264875515646  0.5327340462864837  0.2679683337960195
  0.5601656729555773  0.4172596902710982  0.7605397766140418
  0.5555029896821014  0.0342009127402267  0.2669241706841914
  0.9304134772322874  0.4019847663935920  0.2612196101970575
  0.0460713210843478  0.5418664201982639  0.7664565180449613
  0.4307214826333837  0.9192215470760413  0.7665988623800961
  0.7551396694676568  0.7243503010638301  0.0108646143524470
  0.7398919167401116  0.7285494149366836  0.5114747352484674
  0.2847913893416704  0.6917598017749779  0.0151523114373734
  0.7144590492406470  0.2158996437377792  0.0160233350098943
  0.7709251853329590  0.2154365032691873  0.5246454872554750
  0.2277042179301479  0.7153235153264921  0.5245730972370731
  0.1763819735596257  0.8033815879554433  0.9727959440066617
  0.8302384459872022  0.3146851686061721  0.9678301841472123
  0.6629885773152787  0.3162485972274784  0.4710754594241654
  0.3376244838410863  0.8126601744297972  0.4689385686740168
  0.3675350108271189  0.7561174548619103  0.0586170874918491
  0.3355170061325539  0.6285208895719094  0.9507815380220166
  0.2255331659854616  0.6146984508868378  0.0652593540717645
  0.0983133473509503  0.7469131396018753  0.9284683503239403
  0.1240435807446906  0.8637248264297580  0.0316930127385731
  0.2291909152343445  0.8798460072414407  0.9258699250265625
  0.7371998344527312  0.0968193155627231  0.9942262668855643
  0.7198931143733737  0.2328152193683161  0.0991481314845574
  0.6072648915708860  0.2503886077710366  0.9872380558739144
  0.9346824054853553  0.2890916898645622  0.9936789220169154
  0.8109922562928531  0.4298497496090201  0.9839869224725618
  0.8317840748439486  0.2988871437634672  0.8889921259961865
  0.7500479423538176  0.2252713223806124  0.6070377443315929
  0.7548725597545249  0.0979330299355194  0.4965789958561910
  0.8819334820947025  0.2544777174574976  0.5062715713998442
  0.6780170095237580  0.4304593815281322  0.4919689199212971
  0.6759876983274554  0.3067068432210757  0.3923455437896498
  0.5551546790615539  0.2875393769517323  0.4880403463211190
  0.2490472030953349  0.5956219802982630  0.5037234788030843
  0.2413103628519992  0.7358154082326684  0.6068832074961369
  0.1174629903334045  0.7480902938272055  0.5006070063211060
  0.4446799165973701  0.7884301721579147  0.4900108563255333
  0.3192135078007143  0.9282011803003699  0.4841600745370151
  0.3312023660176041  0.7941391157307106  0.3904483503082465
 
  0.00000000E+00  0.00000000E+00  0.00000000E+00
  0.00000000E+00  0.00000000E+00  0.00000000E+00
  0.00000000E+00  0.00000000E+00  0.00000000E+00
  0.00000000E+00  0.00000000E+00  0.00000000E+00
  0.00000000E+00  0.00000000E+00  0.00000000E+00
  0.00000000E+00  0.00000000E+00  0.00000000E+00
  0.00000000E+00  0.00000000E+00  0.00000000E+00
  0.00000000E+00  0.00000000E+00  0.00000000E+00
  0.00000000E+00  0.00000000E+00  0.00000000E+00
  0.00000000E+00  0.00000000E+00  0.00000000E+00
  0.00000000E+00  0.00000000E+00  0.00000000E+00
  0.00000000E+00  0.00000000E+00  0.00000000E+00
  0.00000000E+00  0.00000000E+00  0.00000000E+00
  0.00000000E+00  0.00000000E+00  0.00000000E+00
  0.00000000E+00  0.00000000E+00  0.00000000E+00
  0.00000000E+00  0.00000000E+00  0.00000000E+00
  0.00000000E+00  0.00000000E+00  0.00000000E+00
  0.00000000E+00  0.00000000E+00  0.00000000E+00
  0.00000000E+00  0.00000000E+00  0.00000000E+00
  0.00000000E+00  0.00000000E+00  0.00000000E+00
  0.00000000E+00  0.00000000E+00  0.00000000E+00
  0.00000000E+00  0.00000000E+00  0.00000000E+00
  0.00000000E+00  0.00000000E+00  0.00000000E+00
  0.00000000E+00  0.00000000E+00  0.00000000E+00
  0.00000000E+00  0.00000000E+00  0.00000000E+00
  0.00000000E+00  0.00000000E+00  0.00000000E+00
  0.00000000E+00  0.00000000E+00  0.00000000E+00
  0.00000000E+00  0.00000000E+00  0.00000000E+00
  0.00000000E+00  0.00000000E+00  0.00000000E+00
  0.00000000E+00  0.00000000E+00  0.00000000E+00
  0.00000000E+00  0.00000000E+00  0.00000000E+00
  0.00000000E+00  0.00000000E+00  0.00000000E+00
  0.00000000E+00  0.00000000E+00  0.00000000E+00
  0.00000000E+00  0.00000000E+00  0.00000000E+00
  0.00000000E+00  0.00000000E+00  0.00000000E+00
  0.00000000E+00  0.00000000E+00  0.00000000E+00
  0.00000000E+00  0.00000000E+00  0.00000000E+00
  0.00000000E+00  0.00000000E+00  0.00000000E+00
  0.00000000E+00  0.00000000E+00  0.00000000E+00
  0.00000000E+00  0.00000000E+00  0.00000000E+00
  0.00000000E+00  0.00000000E+00  0.00000000E+00
  0.00000000E+00  0.00000000E+00  0.00000000E+00
  0.00000000E+00  0.00000000E+00  0.00000000E+00
  0.00000000E+00  0.00000000E+00  0.00000000E+00
  0.00000000E+00  0.00000000E+00  0.00000000E+00
  0.00000000E+00  0.00000000E+00  0.00000000E+00
  0.00000000E+00  0.00000000E+00  0.00000000E+00
  0.00000000E+00  0.00000000E+00  0.00000000E+00
