MAPbI3                                  
   1.00000000000000     
     9.3757589160033188   -0.0044070694037155    0.0053950652063698
    -0.0035206758859681    8.5964726281525774   -0.1802426407142105
     0.0104621063294395   -0.2619184591135361   12.9922472468509262
   Pb   I    C    N    H 
     4    12     4     4    24
Direct
  0.2426903331054472  0.2288998642213490  0.2550502328373003
  0.2528744190302249  0.2411091401714192  0.7582472658921221
  0.7589530042327807  0.7299414417784843  0.2568110121906829
  0.7376691834987406  0.7424398603037758  0.7597876090284094
  0.0747231806896478  0.8940560242422249  0.2510231274730197
  0.9498043694346400  0.0403411220343843  0.7630397070453807
  0.2318442120406037  0.2299019113363878  0.0089577972149631
  0.2572817265339047  0.2222665177372138  0.5090999459891432
  0.4552030197299349  0.5301821394393279  0.2649446844532884
  0.5571174441227477  0.4178201157032210  0.7605242349580276
  0.5470772028124136  0.0311429995871152  0.2627106492911231
  0.9328175712943135  0.4001328058127515  0.2611824984976495
  0.0411666872658183  0.5421480344319417  0.7656887930116388
  0.4320328041650844  0.9177165629423141  0.7612812818453202
  0.7547187816582680  0.7250253154875337  0.0106332082377621
  0.7362886175574902  0.7272929468241884  0.5107975974698445
  0.3001521087390632  0.7112863173933741  0.0149891250616478
  0.7129755589678636  0.2173466207611841  0.0183926064254265
  0.7727177751197377  0.2204380708447797  0.5224918442093308
  0.2221610605089615  0.7141470905612093  0.5202834067426844
  0.1734739867125054  0.7992378571768906  0.9758238357491157
  0.8322092661782048  0.3083127700320776  0.9712149034904042
  0.6571260516645280  0.3107927505035927  0.4708930250658201
  0.3377664199853584  0.8062444623584480  0.4695560830259599
  0.3590438229837146  0.7882261650866881  0.0688093218838862
  0.3668664021953068  0.6760812911579118  0.9491082088825535
  0.2608454562506679  0.6096783253343619  0.0539929997582122
  0.1198249845919096  0.7335902004743121  0.9190179323125006
  0.1037102445964654  0.8268745898654397  0.0356115010341485
  0.2047798174939421  0.9024685518903475  0.9446328443140046
  0.7416686031544123  0.0940842931729741  0.0142122219362774
  0.7003749021923157  0.2583017999168978  0.0984821684983890
  0.6157637988876422  0.2371579632533454  0.9745110310065593
  0.9275005620545981  0.2937647173712037  0.0097221727734068
  0.8097325264602638  0.4267101720035844  0.9736628766253026
  0.8493124736982665  0.2712431494495190  0.8952760052424146
  0.7693059589167758  0.2496391768488295  0.6049587537530658
  0.7524502591276615  0.0963311552463402  0.5077502463792154
  0.8751769575596884  0.2533475750166408  0.4895150974588180
  0.6743225102837180  0.4299242460970113  0.4805645453472720
  0.6531202275640948  0.2827746320730639  0.3927798528986653
  0.5572538411874827  0.2869888923186660  0.5005498007162968
  0.2464253798918605  0.5903835411056801  0.5085604310468813
  0.2207708404952516  0.7472079947643937  0.6022621435777233
  0.1205071371059583  0.7417880366247829  0.4842497372608713
  0.4368723511849790  0.7865134214086077  0.5015924107851935
  0.3177551113371792  0.9250388783877401  0.4771697026902840
  0.3457730457376204  0.7753544894464454  0.3919315186119897
 
  0.00000000E+00  0.00000000E+00  0.00000000E+00
  0.00000000E+00  0.00000000E+00  0.00000000E+00
  0.00000000E+00  0.00000000E+00  0.00000000E+00
  0.00000000E+00  0.00000000E+00  0.00000000E+00
  0.00000000E+00  0.00000000E+00  0.00000000E+00
  0.00000000E+00  0.00000000E+00  0.00000000E+00
  0.00000000E+00  0.00000000E+00  0.00000000E+00
  0.00000000E+00  0.00000000E+00  0.00000000E+00
  0.00000000E+00  0.00000000E+00  0.00000000E+00
  0.00000000E+00  0.00000000E+00  0.00000000E+00
  0.00000000E+00  0.00000000E+00  0.00000000E+00
  0.00000000E+00  0.00000000E+00  0.00000000E+00
  0.00000000E+00  0.00000000E+00  0.00000000E+00
  0.00000000E+00  0.00000000E+00  0.00000000E+00
  0.00000000E+00  0.00000000E+00  0.00000000E+00
  0.00000000E+00  0.00000000E+00  0.00000000E+00
  0.00000000E+00  0.00000000E+00  0.00000000E+00
  0.00000000E+00  0.00000000E+00  0.00000000E+00
  0.00000000E+00  0.00000000E+00  0.00000000E+00
  0.00000000E+00  0.00000000E+00  0.00000000E+00
  0.00000000E+00  0.00000000E+00  0.00000000E+00
  0.00000000E+00  0.00000000E+00  0.00000000E+00
  0.00000000E+00  0.00000000E+00  0.00000000E+00
  0.00000000E+00  0.00000000E+00  0.00000000E+00
  0.00000000E+00  0.00000000E+00  0.00000000E+00
  0.00000000E+00  0.00000000E+00  0.00000000E+00
  0.00000000E+00  0.00000000E+00  0.00000000E+00
  0.00000000E+00  0.00000000E+00  0.00000000E+00
  0.00000000E+00  0.00000000E+00  0.00000000E+00
  0.00000000E+00  0.00000000E+00  0.00000000E+00
  0.00000000E+00  0.00000000E+00  0.00000000E+00
  0.00000000E+00  0.00000000E+00  0.00000000E+00
  0.00000000E+00  0.00000000E+00  0.00000000E+00
  0.00000000E+00  0.00000000E+00  0.00000000E+00
  0.00000000E+00  0.00000000E+00  0.00000000E+00
  0.00000000E+00  0.00000000E+00  0.00000000E+00
  0.00000000E+00  0.00000000E+00  0.00000000E+00
  0.00000000E+00  0.00000000E+00  0.00000000E+00
  0.00000000E+00  0.00000000E+00  0.00000000E+00
  0.00000000E+00  0.00000000E+00  0.00000000E+00
  0.00000000E+00  0.00000000E+00  0.00000000E+00
  0.00000000E+00  0.00000000E+00  0.00000000E+00
  0.00000000E+00  0.00000000E+00  0.00000000E+00
  0.00000000E+00  0.00000000E+00  0.00000000E+00
  0.00000000E+00  0.00000000E+00  0.00000000E+00
  0.00000000E+00  0.00000000E+00  0.00000000E+00
  0.00000000E+00  0.00000000E+00  0.00000000E+00
  0.00000000E+00  0.00000000E+00  0.00000000E+00
