MAPbI3                                  
   1.00000000000000     
     6.2803384886191553    0.0046162724106726    0.0003532005792566
     0.0035700815100633   10.2946950560373214    1.0108192233595863
    -0.0190196520810439    1.3853778192546817   16.5658638687545832
   Pb   I    C    N    H 
     4    12     4     4    24
Direct
  0.2227056055306932  0.2614612853864243  0.2527585242313393
  0.2771607350423174  0.2614048759490671  0.7524003534597649
  0.6943751102609055  0.7456515354804627  0.2121168790859071
  0.8052064212233068  0.7448609590262055  0.7134363852785179
  0.1460741977718164  0.8905477533004781  0.2173696271923902
  0.8501249354582370  0.1095545402021315  0.8180524975648806
  0.3625413418069047  0.3286093981592479  0.0733573563640750
  0.1373842365500090  0.3287623139673672  0.5725776245616376
  0.3661344162899414  0.5007572917228904  0.3309034377206780
  0.6340874109169405  0.4912646793927768  0.6703561961254821
  0.6496908853836152  0.1085728449927043  0.3184740074653746
  0.8661952441861014  0.4915950350577342  0.1697968846590245
  0.1351386313516112  0.5004533902430558  0.8314839900115516
  0.3540263861171925  0.8914417584657437  0.7184173379236632
  0.6431018938883223  0.8454950793709927  0.0270138499384552
  0.8573310095035221  0.8436609817289463  0.5287583401658690
  0.1473577835912540  0.6915951608309867  0.9957038722669339
  0.8626665084035056  0.1630416930996454  0.0565947943042389
  0.6377688995725501  0.1629050915083818  0.5565409347514350
  0.3526614584201514  0.6913594183853569  0.4956296903408905
  0.1620854521715263  0.8146458316395973  0.9317706956413789
  0.8601670073533724  0.2834133821947526  0.9910318215632794
  0.6395683283972509  0.2833379476460459  0.4910261924690599
  0.3373567136116123  0.8147883847571569  0.4319693765877618
  0.1392991407972510  0.7208463508802573  0.0554723691382717
  0.2887002619235204  0.6320176630977218  0.9914270090500114
  0.0034646422317243  0.6388863128288753  0.9845201084170899
  0.1923865028492916  0.7958718535892075  0.8736580131682588
  0.0242500699212093  0.8702646635574783  0.9294760659191145
  0.2887358340360532  0.8705994016403763  0.9462910048590459
  0.7181688746006872  0.1073432436938873  0.0510848702514907
  0.0039646596192326  0.1053294168666169  0.0484511146494589
  0.8667283703611059  0.1940787225708454  0.1159458693881199
  0.8510208909186259  0.2577934367196741  0.9335080242870182
  0.9981914456065615  0.3375273187476439  0.9933824173584064
  0.7297598545887520  0.3411012740141929  0.9990755100770500
  0.4964179649549833  0.1053295364955458  0.5484829419574088
  0.7822823717933195  0.1070958278331087  0.5509228640866521
  0.6343439656545511  0.1939171027980243  0.6159095371673183
  0.5013877552773143  0.3374826173403603  0.4934076394791059
  0.7698965809422360  0.3409757535285155  0.4990845709504568
  0.6485042528842566  0.2578126029181378  0.4334925822970372
  0.2114362641743468  0.6319357902323344  0.4911314242838505
  0.4966742429170565  0.6387150543852586  0.4843030862793821
  0.3608046773476411  0.7201480122154450  0.5555351180297542
  0.3068273855012262  0.7964346590356303  0.3737700547360947
  0.4750529530750249  0.8703050365561411  0.4297844598340680
  0.2107924252212133  0.8707037159464274  0.4466906746619940
 
  0.00000000E+00  0.00000000E+00  0.00000000E+00
  0.00000000E+00  0.00000000E+00  0.00000000E+00
  0.00000000E+00  0.00000000E+00  0.00000000E+00
  0.00000000E+00  0.00000000E+00  0.00000000E+00
  0.00000000E+00  0.00000000E+00  0.00000000E+00
  0.00000000E+00  0.00000000E+00  0.00000000E+00
  0.00000000E+00  0.00000000E+00  0.00000000E+00
  0.00000000E+00  0.00000000E+00  0.00000000E+00
  0.00000000E+00  0.00000000E+00  0.00000000E+00
  0.00000000E+00  0.00000000E+00  0.00000000E+00
  0.00000000E+00  0.00000000E+00  0.00000000E+00
  0.00000000E+00  0.00000000E+00  0.00000000E+00
  0.00000000E+00  0.00000000E+00  0.00000000E+00
  0.00000000E+00  0.00000000E+00  0.00000000E+00
  0.00000000E+00  0.00000000E+00  0.00000000E+00
  0.00000000E+00  0.00000000E+00  0.00000000E+00
  0.00000000E+00  0.00000000E+00  0.00000000E+00
  0.00000000E+00  0.00000000E+00  0.00000000E+00
  0.00000000E+00  0.00000000E+00  0.00000000E+00
  0.00000000E+00  0.00000000E+00  0.00000000E+00
  0.00000000E+00  0.00000000E+00  0.00000000E+00
  0.00000000E+00  0.00000000E+00  0.00000000E+00
  0.00000000E+00  0.00000000E+00  0.00000000E+00
  0.00000000E+00  0.00000000E+00  0.00000000E+00
  0.00000000E+00  0.00000000E+00  0.00000000E+00
  0.00000000E+00  0.00000000E+00  0.00000000E+00
  0.00000000E+00  0.00000000E+00  0.00000000E+00
  0.00000000E+00  0.00000000E+00  0.00000000E+00
  0.00000000E+00  0.00000000E+00  0.00000000E+00
  0.00000000E+00  0.00000000E+00  0.00000000E+00
  0.00000000E+00  0.00000000E+00  0.00000000E+00
  0.00000000E+00  0.00000000E+00  0.00000000E+00
  0.00000000E+00  0.00000000E+00  0.00000000E+00
  0.00000000E+00  0.00000000E+00  0.00000000E+00
  0.00000000E+00  0.00000000E+00  0.00000000E+00
  0.00000000E+00  0.00000000E+00  0.00000000E+00
  0.00000000E+00  0.00000000E+00  0.00000000E+00
  0.00000000E+00  0.00000000E+00  0.00000000E+00
  0.00000000E+00  0.00000000E+00  0.00000000E+00
  0.00000000E+00  0.00000000E+00  0.00000000E+00
  0.00000000E+00  0.00000000E+00  0.00000000E+00
  0.00000000E+00  0.00000000E+00  0.00000000E+00
  0.00000000E+00  0.00000000E+00  0.00000000E+00
  0.00000000E+00  0.00000000E+00  0.00000000E+00
  0.00000000E+00  0.00000000E+00  0.00000000E+00
  0.00000000E+00  0.00000000E+00  0.00000000E+00
  0.00000000E+00  0.00000000E+00  0.00000000E+00
  0.00000000E+00  0.00000000E+00  0.00000000E+00
