MAPbI3                                  
   1.00000000000000     
     9.4697502352450584   -0.0020872209505818    0.0042883820292035
    -0.0014084563185478    8.5441525819415283   -0.1991091534963321
     0.0088772224848538   -0.2891984587955442   12.9767088078762534
   Pb   I    C    N    H 
     4    12     4     4    24
Direct
  0.2424356782532284  0.2294442463900249  0.2551948535665861
  0.2533620843358225  0.2412737016578685  0.7581179709266929
  0.7600288581878371  0.7286302743251774  0.2572883102148560
  0.7378877302897272  0.7428235561801029  0.7597817666865414
  0.0725903018922193  0.8938432230203087  0.2501873187303597
  0.9515747934983481  0.0408584323180006  0.7627997289646273
  0.2358542631920795  0.2288652951236036  0.0083760592721921
  0.2571369275581109  0.2235559441448119  0.5088006262629520
  0.4553975991784256  0.5309780281180525  0.2640574603824916
  0.5566266850177726  0.4175567436274805  0.7605445509852274
  0.5462470215970172  0.0302966981111107  0.2633418161158517
  0.9324355039004077  0.3971059324262868  0.2588552021788001
  0.0403148089019672  0.5421843224955930  0.7652514277807198
  0.4337889367589604  0.9168856083820364  0.7586652653645026
  0.7546423978339403  0.7251364907193791  0.0105007491915598
  0.7373731122718303  0.7266435354401038  0.5104498531610037
  0.3003342626218950  0.7120904067072752  0.0148483540337124
  0.7123467214482432  0.2171306681017101  0.0178833082615711
  0.7732455463873247  0.2211125585314112  0.5229459496931821
  0.2193109746043478  0.7195274096229641  0.5196942303334851
  0.1736452857156140  0.7984632768638943  0.9758747148611049
  0.8325650991334651  0.3069055075797907  0.9722312329597368
  0.6568311511117719  0.3079278905711876  0.4706680466482510
  0.3390902962034049  0.8060025353573427  0.4708135610676085
  0.3547421018282176  0.7883309610129778  0.0718380952848352
  0.3695534328878955  0.6828767993820520  0.9493620722866751
  0.2633176836985961  0.6060546952949964  0.0501428275289955
  0.1234286734739593  0.7334643475893310  0.9168139029988004
  0.1023368111037666  0.8212350327436155  0.0351889435085213
  0.2025180125707400  0.9052406466271331  0.9479812438979138
  0.7444856670300488  0.0948340931546878  0.0221994330340926
  0.6901601011048871  0.2678750109934167  0.0948918598721883
  0.6205510324067516  0.2269508495487460  0.9676155108318213
  0.9230793317866252  0.2997066813784866  0.0162243206189255
  0.8079636155316273  0.4249254898064947  0.9685907717030680
  0.8572312993929494  0.2621405090960343  0.8986902068237604
  0.7767434508408712  0.2615852254663301  0.6038376393289017
  0.7496097425606884  0.0959249793472930  0.5162027788449693
  0.8726874083912234  0.2460680873087192  0.4840945815532834
  0.6759420298153739  0.4277840940135917  0.4741301861412703
  0.6469253901058798  0.2701711721768913  0.3940162868733430
  0.5598080498099254  0.2902287741958842  0.5050302681834872
  0.2432317754909242  0.5943259483437370  0.5143719899679440
  0.2105569068388289  0.7608584403497225  0.6002436814708346
  0.1225245085100089  0.7437413663920438  0.4774855326568729
  0.4338562015718087  0.7887432240941049  0.5082360902302440
  0.3200670467582635  0.9258563706883504  0.4733440346441021
  0.3536156865964304  0.7675309151798267  0.3946433840715686
 
  0.00000000E+00  0.00000000E+00  0.00000000E+00
  0.00000000E+00  0.00000000E+00  0.00000000E+00
  0.00000000E+00  0.00000000E+00  0.00000000E+00
  0.00000000E+00  0.00000000E+00  0.00000000E+00
  0.00000000E+00  0.00000000E+00  0.00000000E+00
  0.00000000E+00  0.00000000E+00  0.00000000E+00
  0.00000000E+00  0.00000000E+00  0.00000000E+00
  0.00000000E+00  0.00000000E+00  0.00000000E+00
  0.00000000E+00  0.00000000E+00  0.00000000E+00
  0.00000000E+00  0.00000000E+00  0.00000000E+00
  0.00000000E+00  0.00000000E+00  0.00000000E+00
  0.00000000E+00  0.00000000E+00  0.00000000E+00
  0.00000000E+00  0.00000000E+00  0.00000000E+00
  0.00000000E+00  0.00000000E+00  0.00000000E+00
  0.00000000E+00  0.00000000E+00  0.00000000E+00
  0.00000000E+00  0.00000000E+00  0.00000000E+00
  0.00000000E+00  0.00000000E+00  0.00000000E+00
  0.00000000E+00  0.00000000E+00  0.00000000E+00
  0.00000000E+00  0.00000000E+00  0.00000000E+00
  0.00000000E+00  0.00000000E+00  0.00000000E+00
  0.00000000E+00  0.00000000E+00  0.00000000E+00
  0.00000000E+00  0.00000000E+00  0.00000000E+00
  0.00000000E+00  0.00000000E+00  0.00000000E+00
  0.00000000E+00  0.00000000E+00  0.00000000E+00
  0.00000000E+00  0.00000000E+00  0.00000000E+00
  0.00000000E+00  0.00000000E+00  0.00000000E+00
  0.00000000E+00  0.00000000E+00  0.00000000E+00
  0.00000000E+00  0.00000000E+00  0.00000000E+00
  0.00000000E+00  0.00000000E+00  0.00000000E+00
  0.00000000E+00  0.00000000E+00  0.00000000E+00
  0.00000000E+00  0.00000000E+00  0.00000000E+00
  0.00000000E+00  0.00000000E+00  0.00000000E+00
  0.00000000E+00  0.00000000E+00  0.00000000E+00
  0.00000000E+00  0.00000000E+00  0.00000000E+00
  0.00000000E+00  0.00000000E+00  0.00000000E+00
  0.00000000E+00  0.00000000E+00  0.00000000E+00
  0.00000000E+00  0.00000000E+00  0.00000000E+00
  0.00000000E+00  0.00000000E+00  0.00000000E+00
  0.00000000E+00  0.00000000E+00  0.00000000E+00
  0.00000000E+00  0.00000000E+00  0.00000000E+00
  0.00000000E+00  0.00000000E+00  0.00000000E+00
  0.00000000E+00  0.00000000E+00  0.00000000E+00
  0.00000000E+00  0.00000000E+00  0.00000000E+00
  0.00000000E+00  0.00000000E+00  0.00000000E+00
  0.00000000E+00  0.00000000E+00  0.00000000E+00
  0.00000000E+00  0.00000000E+00  0.00000000E+00
  0.00000000E+00  0.00000000E+00  0.00000000E+00
  0.00000000E+00  0.00000000E+00  0.00000000E+00
