MAPbI3                                  
   1.00000000000000     
     6.2175322017672485   -0.0049701257531266    0.0020392764328662
    -0.0122955190930394   10.5738587222998479    1.1855231502323225
    -0.0168304024249358    1.6954825545438017   16.6749936512503645
   Pb   I    C    N    H 
     4    12     4     4    24
Direct
  0.2242278116501968  0.2702652957383823  0.2521324915031007
  0.2773469115166560  0.2711137132036761  0.7522702050985907
  0.6941787165446031  0.7371608167110999  0.2123643629032088
  0.8059387614231516  0.7379731678747703  0.7127934648561324
  0.1478281542629792  0.8799431575468101  0.2199381354962914
  0.8457780396554908  0.1146435269032970  0.8174820629399561
  0.3594694757303464  0.3377328870360473  0.0713456553371630
  0.1392192608727249  0.3380404137584306  0.5716871682676861
  0.3733489785053080  0.4927972666969447  0.3314997980199246
  0.6313275895566008  0.4969773930240141  0.6654748698700274
  0.6548394843861330  0.1141982758355547  0.3174368150012729
  0.8698770221801136  0.4970534266284163  0.1653857006980418
  0.1262942580394775  0.4925044234750370  0.8318454548614178
  0.3518332782600868  0.8797109607968524  0.7190928000749190
  0.6445330796334975  0.8514228444829692  0.0283544630083713
  0.8575778044825111  0.8511525811075082  0.5289442812967229
  0.1493158201781730  0.6963587479587875  0.9858790193479491
  0.8577104774382416  0.1585803238034777  0.0668689244958458
  0.6413294111913415  0.1585417252561833  0.5661365657191819
  0.3501495844551911  0.6960817049388284  0.4861635115443911
  0.1615350343186589  0.8264382538140035  0.9291811029274565
  0.8553253818033447  0.2682837235237630  0.9940066437130659
  0.6435640297084506  0.2694874780263529  0.4940127918245207
  0.3401714081342998  0.8267001411722645  0.4299789661301923
  0.1400722136511083  0.7108500357092823  0.0482609879892813
  0.2937030262866447  0.6424218658465103  0.9778027722837029
  0.0055261696869384  0.6469672205282745  0.9712858392960698
  0.1953583177122775  0.8214111436022630  0.8691541935630536
  0.0201255490863537  0.8774037267034647  0.9299665183072509
  0.2864800949307714  0.8779933817501568  0.9481555744405206
  0.7102484489153887  0.1032672588545300  0.0665486631862500
 -0.0012644109445392  0.0993020686535780  0.0628902239110820
  0.8646532662848099  0.1981921480121045  0.1217897210871772
  0.8466804390559020  0.2354864839706373  0.9398206744934268
 -0.0059794218020766  0.3231040819509536  0.9924347246856123
  0.7230103688717946  0.3260540445239522  0.9973964144718211
  0.4997828173331940  0.0996159409851016  0.5618074816834823
  0.7882665884880420  0.1034022891208588  0.5651008295500985
  0.6355432433424044  0.1967147316432357  0.6216152586175480
  0.5049825762436092  0.3239526417577051  0.4928809858820045
  0.7759252296289085  0.3272614939203604  0.4978287693779049
  0.6519857501256493  0.2378657061259796  0.4394794603401206
  0.2050722781552911  0.6427205539495831  0.4775861000382308
  0.4934567314636161  0.6466609519311800  0.4714969783892233
  0.3593422309168483  0.7098793033572657  0.5487463556746591
  0.3059265116145876  0.8225175312682468  0.3698150657567825
  0.4823136796235573  0.8770654967420951  0.4311291665258352
  0.2160705274011673  0.8784236497790483  0.4490799855134572
 
  0.00000000E+00  0.00000000E+00  0.00000000E+00
  0.00000000E+00  0.00000000E+00  0.00000000E+00
  0.00000000E+00  0.00000000E+00  0.00000000E+00
  0.00000000E+00  0.00000000E+00  0.00000000E+00
  0.00000000E+00  0.00000000E+00  0.00000000E+00
  0.00000000E+00  0.00000000E+00  0.00000000E+00
  0.00000000E+00  0.00000000E+00  0.00000000E+00
  0.00000000E+00  0.00000000E+00  0.00000000E+00
  0.00000000E+00  0.00000000E+00  0.00000000E+00
  0.00000000E+00  0.00000000E+00  0.00000000E+00
  0.00000000E+00  0.00000000E+00  0.00000000E+00
  0.00000000E+00  0.00000000E+00  0.00000000E+00
  0.00000000E+00  0.00000000E+00  0.00000000E+00
  0.00000000E+00  0.00000000E+00  0.00000000E+00
  0.00000000E+00  0.00000000E+00  0.00000000E+00
  0.00000000E+00  0.00000000E+00  0.00000000E+00
  0.00000000E+00  0.00000000E+00  0.00000000E+00
  0.00000000E+00  0.00000000E+00  0.00000000E+00
  0.00000000E+00  0.00000000E+00  0.00000000E+00
  0.00000000E+00  0.00000000E+00  0.00000000E+00
  0.00000000E+00  0.00000000E+00  0.00000000E+00
  0.00000000E+00  0.00000000E+00  0.00000000E+00
  0.00000000E+00  0.00000000E+00  0.00000000E+00
  0.00000000E+00  0.00000000E+00  0.00000000E+00
  0.00000000E+00  0.00000000E+00  0.00000000E+00
  0.00000000E+00  0.00000000E+00  0.00000000E+00
  0.00000000E+00  0.00000000E+00  0.00000000E+00
  0.00000000E+00  0.00000000E+00  0.00000000E+00
  0.00000000E+00  0.00000000E+00  0.00000000E+00
  0.00000000E+00  0.00000000E+00  0.00000000E+00
  0.00000000E+00  0.00000000E+00  0.00000000E+00
  0.00000000E+00  0.00000000E+00  0.00000000E+00
  0.00000000E+00  0.00000000E+00  0.00000000E+00
  0.00000000E+00  0.00000000E+00  0.00000000E+00
  0.00000000E+00  0.00000000E+00  0.00000000E+00
  0.00000000E+00  0.00000000E+00  0.00000000E+00
  0.00000000E+00  0.00000000E+00  0.00000000E+00
  0.00000000E+00  0.00000000E+00  0.00000000E+00
  0.00000000E+00  0.00000000E+00  0.00000000E+00
  0.00000000E+00  0.00000000E+00  0.00000000E+00
  0.00000000E+00  0.00000000E+00  0.00000000E+00
  0.00000000E+00  0.00000000E+00  0.00000000E+00
  0.00000000E+00  0.00000000E+00  0.00000000E+00
  0.00000000E+00  0.00000000E+00  0.00000000E+00
  0.00000000E+00  0.00000000E+00  0.00000000E+00
  0.00000000E+00  0.00000000E+00  0.00000000E+00
  0.00000000E+00  0.00000000E+00  0.00000000E+00
  0.00000000E+00  0.00000000E+00  0.00000000E+00
