MAPbI3                                  
   1.00000000000000     
     8.1504805928060868   -0.0031216319698355    0.0479893624470261
    -0.0034998754936652    9.3264974282913418   -0.0045155408774279
     0.0710336700371108   -0.0125971192169244   13.2374951184942251
   Pb   I    C    N    H 
     4    12     4     4    24
Direct
  0.2517469403616959  0.2283308639480272  0.2529004770046564
  0.2463916872684450  0.2308722049666648  0.7539791335640302
  0.7564238181250583  0.7297677076131865  0.2538016725738541
  0.7464443966703372  0.7314674947904473  0.7537430811134930
  0.0936527353846041  0.9044157018337001  0.2471869911474512
  0.9208487121877306  0.0379933666657849  0.7707621471300738
  0.2399582456684964  0.2153851219487776  0.0074031815340975
  0.2506187602074119  0.2129369834732714  0.5071639646488951
  0.4276431879874383  0.5340855113498304  0.2740110353348570
  0.5756911237030270  0.4172939652126511  0.7495677290124790
  0.5843732876960961  0.0384815134345562  0.2706425904802852
  0.9216077340775222  0.4111487689957323  0.2496972333239945
  0.0736959917339650  0.5389101888074207  0.7674405391912392
  0.4175261768440959  0.9159498544452643  0.7551076543462945
  0.7474811021106207  0.7213850558057846  0.0076827393972739
  0.7534074717459947  0.7196011795132549  0.5073973304579468
  0.2609139423834048  0.6796502819594371  0.0213124118934505
  0.7230209362124773  0.2132252456544049  0.0168148374362072
  0.7644756482416628  0.2064143995333070  0.5231743318771543
  0.2403293861574493  0.7063369828514086  0.5253314652538970
  0.1809354431014605  0.8104297135936241  0.9768700047318105
  0.8236231416588957  0.3288943479897958  0.9667122126747694
  0.6731701073223724  0.3249330543951686  0.4711496941949398
  0.3318202677029409  0.8231673922179505  0.4701582741465649
  0.3803941582963336  0.7108840873858774  0.0503226664102255
  0.2743999915446833  0.5993613395386314  0.9616366402989478
  0.1827646988701921  0.6395453548322976  0.0825553071955930
  0.0594338791660241  0.7897625162313378  0.9596786354505432
  0.1807113560161458  0.8948452655650762  0.0275558109117765
  0.2416417094196864  0.8437480086345577  0.9114310078716459
  0.7519190979229657  0.1112534933696373  0.9799157070607641
  0.7544805973581787  0.2100615523892205  0.0966349220126086
  0.5935282071856783  0.2392238202239190  0.0077234363666876
  0.9482310903777210  0.3082866668092284  0.9741193517767207
  0.8002598094162801  0.4289538330894091  0.9978199416455792
  0.7968242352413872  0.3360772275917882  0.8905904263238247
  0.7087813390203002  0.1894025126393310  0.5974839953501394
  0.7557537015968555  0.1097729516744705  0.4767115780400819
  0.8923149917311820  0.2391736754335545  0.5306847459189119
  0.6867186525446541  0.4220365057479962  0.5080940377297121
  0.7165556725876373  0.3393080419621854  0.3978494372611411
  0.5485033407362512  0.3023660230358254  0.4688181697098335
  0.2584000280436554  0.6059850585100459  0.4839301538711330
  0.2887365792937669  0.6986262142568213  0.6015460061918366
  0.1104846529215216  0.7346647962877043  0.5279053577891643
  0.4573089292814567  0.8037494662076934  0.4705916012727806
  0.3121506442628915  0.9227590784031702  0.5029164875461822
  0.2939043926113422  0.8307716091806758  0.3958218435244473
 
  0.00000000E+00  0.00000000E+00  0.00000000E+00
  0.00000000E+00  0.00000000E+00  0.00000000E+00
  0.00000000E+00  0.00000000E+00  0.00000000E+00
  0.00000000E+00  0.00000000E+00  0.00000000E+00
  0.00000000E+00  0.00000000E+00  0.00000000E+00
  0.00000000E+00  0.00000000E+00  0.00000000E+00
  0.00000000E+00  0.00000000E+00  0.00000000E+00
  0.00000000E+00  0.00000000E+00  0.00000000E+00
  0.00000000E+00  0.00000000E+00  0.00000000E+00
  0.00000000E+00  0.00000000E+00  0.00000000E+00
  0.00000000E+00  0.00000000E+00  0.00000000E+00
  0.00000000E+00  0.00000000E+00  0.00000000E+00
  0.00000000E+00  0.00000000E+00  0.00000000E+00
  0.00000000E+00  0.00000000E+00  0.00000000E+00
  0.00000000E+00  0.00000000E+00  0.00000000E+00
  0.00000000E+00  0.00000000E+00  0.00000000E+00
  0.00000000E+00  0.00000000E+00  0.00000000E+00
  0.00000000E+00  0.00000000E+00  0.00000000E+00
  0.00000000E+00  0.00000000E+00  0.00000000E+00
  0.00000000E+00  0.00000000E+00  0.00000000E+00
  0.00000000E+00  0.00000000E+00  0.00000000E+00
  0.00000000E+00  0.00000000E+00  0.00000000E+00
  0.00000000E+00  0.00000000E+00  0.00000000E+00
  0.00000000E+00  0.00000000E+00  0.00000000E+00
  0.00000000E+00  0.00000000E+00  0.00000000E+00
  0.00000000E+00  0.00000000E+00  0.00000000E+00
  0.00000000E+00  0.00000000E+00  0.00000000E+00
  0.00000000E+00  0.00000000E+00  0.00000000E+00
  0.00000000E+00  0.00000000E+00  0.00000000E+00
  0.00000000E+00  0.00000000E+00  0.00000000E+00
  0.00000000E+00  0.00000000E+00  0.00000000E+00
  0.00000000E+00  0.00000000E+00  0.00000000E+00
  0.00000000E+00  0.00000000E+00  0.00000000E+00
  0.00000000E+00  0.00000000E+00  0.00000000E+00
  0.00000000E+00  0.00000000E+00  0.00000000E+00
  0.00000000E+00  0.00000000E+00  0.00000000E+00
  0.00000000E+00  0.00000000E+00  0.00000000E+00
  0.00000000E+00  0.00000000E+00  0.00000000E+00
  0.00000000E+00  0.00000000E+00  0.00000000E+00
  0.00000000E+00  0.00000000E+00  0.00000000E+00
  0.00000000E+00  0.00000000E+00  0.00000000E+00
  0.00000000E+00  0.00000000E+00  0.00000000E+00
  0.00000000E+00  0.00000000E+00  0.00000000E+00
  0.00000000E+00  0.00000000E+00  0.00000000E+00
  0.00000000E+00  0.00000000E+00  0.00000000E+00
  0.00000000E+00  0.00000000E+00  0.00000000E+00
  0.00000000E+00  0.00000000E+00  0.00000000E+00
  0.00000000E+00  0.00000000E+00  0.00000000E+00
