MAPbI3                                  
   1.00000000000000     
     6.4075318454537751    0.0014385231638654    0.0077629685227715
    -0.0002167129861202   10.0878051621298113    0.8433364734299454
     0.0001270634968872    1.1170460974281822   16.2587605710256966
   Pb   I    C    N    H 
     4    12     4     4    24
Direct
  0.2280656682339849  0.2533783868347462  0.2506409326098747
  0.2720565359716579  0.2534498846877792  0.7511057054208997
  0.7011531740782908  0.7492554368580939  0.2145089970349550
  0.7969311517569457  0.7504664200006836  0.7147051522251788
  0.1490532327745089  0.8942913161188600  0.2162735325254357
  0.8514621420066191  0.1027957940595884  0.8150617048841599
  0.3615070691338232  0.3207725781927817  0.0686476283436705
  0.1391986494653525  0.3209006073623195  0.5694770930340197
  0.3703634132378022  0.5064649278682808  0.3275616499118103
  0.6310616853424769  0.4858637410587419  0.6732540115475997
  0.6484093551675949  0.1033704371639477  0.3150378264720909
  0.8678493730774055  0.4850670775910930  0.1732199259784061
  0.1261874909440558  0.5064217854378369  0.8276901708645489
  0.3498098490338243  0.8953302821017823  0.7159930866510527
  0.6504416052252068  0.8355386685739317  0.0262444783821385
  0.8485731640357651  0.8365929694812082  0.5266146995782988
  0.1547289162558732  0.6884940128966326  0.0020653580721815
  0.8576174353513178  0.1642749078063141  0.0511160500147521
  0.6448431230788852  0.1669640050564061  0.5497281198184693
  0.3445011973477083  0.6895913909920829  0.5013355494657088
  0.1671010410897582  0.8104855666251133  0.9365452667242954
  0.8603192037339625  0.2904293814952358  0.9895282241162273
  0.6408306186183454  0.2936843681234560  0.4887250935365098
  0.3321171159730958  0.8130517604883960  0.4368961854742554
  0.1503118020446150  0.7220387851256003  0.0625870028671461
  0.2921814353026927  0.6270301790946839  0.9966789637401832
  0.0125487173132471  0.6344465198852179  0.9919649832156993
  0.1925851128445029  0.7866136772076864  0.8777558811488582
  0.0318705007737165  0.8668757842876407  0.9350419368951178
  0.2927040201827666  0.8684719622847829  0.9495594587173053
  0.7167995634683627  0.1089439768475730  0.0410687823109105
  0.9969598882825550  0.1065396663887141  0.0414746105914205
  0.8567717170716862  0.1909883891832672  0.1135665065753452
  0.8516169666979088  0.2685866904117915  0.9294412095273170
  0.9975579893276830  0.3427266297931556  0.9947528764730830
  0.7344359831417397  0.3497859150830707 -0.0000247819272546
  0.5054523239687256  0.1092100654159071  0.5403717758480268
  0.7854933045570234  0.1119446788533041  0.5388591165813904
  0.6470442306401309  0.1927798040007078  0.6123965597277681
  0.5034705651804765  0.3455348224821138  0.4947411673138143
  0.7666532372072858  0.3530412801384386  0.4990577571552599
  0.6484964241250475  0.2726281021110658  0.4284509438662496
  0.2068224235994959  0.6285792343017196  0.4955475681060760
  0.4865138263237793  0.6357841713810718  0.4904418716629742
  0.3492503061539181  0.7214355666994809  0.5623336348527372
  0.3057423216205963  0.7909797349046005  0.3777550997839171
  0.4676073782567696  0.8690767384282981  0.4356628958084044
  0.2069297509809176  0.8707179188146905  0.4508857364717557
 
  0.00000000E+00  0.00000000E+00  0.00000000E+00
  0.00000000E+00  0.00000000E+00  0.00000000E+00
  0.00000000E+00  0.00000000E+00  0.00000000E+00
  0.00000000E+00  0.00000000E+00  0.00000000E+00
  0.00000000E+00  0.00000000E+00  0.00000000E+00
  0.00000000E+00  0.00000000E+00  0.00000000E+00
  0.00000000E+00  0.00000000E+00  0.00000000E+00
  0.00000000E+00  0.00000000E+00  0.00000000E+00
  0.00000000E+00  0.00000000E+00  0.00000000E+00
  0.00000000E+00  0.00000000E+00  0.00000000E+00
  0.00000000E+00  0.00000000E+00  0.00000000E+00
  0.00000000E+00  0.00000000E+00  0.00000000E+00
  0.00000000E+00  0.00000000E+00  0.00000000E+00
  0.00000000E+00  0.00000000E+00  0.00000000E+00
  0.00000000E+00  0.00000000E+00  0.00000000E+00
  0.00000000E+00  0.00000000E+00  0.00000000E+00
  0.00000000E+00  0.00000000E+00  0.00000000E+00
  0.00000000E+00  0.00000000E+00  0.00000000E+00
  0.00000000E+00  0.00000000E+00  0.00000000E+00
  0.00000000E+00  0.00000000E+00  0.00000000E+00
  0.00000000E+00  0.00000000E+00  0.00000000E+00
  0.00000000E+00  0.00000000E+00  0.00000000E+00
  0.00000000E+00  0.00000000E+00  0.00000000E+00
  0.00000000E+00  0.00000000E+00  0.00000000E+00
  0.00000000E+00  0.00000000E+00  0.00000000E+00
  0.00000000E+00  0.00000000E+00  0.00000000E+00
  0.00000000E+00  0.00000000E+00  0.00000000E+00
  0.00000000E+00  0.00000000E+00  0.00000000E+00
  0.00000000E+00  0.00000000E+00  0.00000000E+00
  0.00000000E+00  0.00000000E+00  0.00000000E+00
  0.00000000E+00  0.00000000E+00  0.00000000E+00
  0.00000000E+00  0.00000000E+00  0.00000000E+00
  0.00000000E+00  0.00000000E+00  0.00000000E+00
  0.00000000E+00  0.00000000E+00  0.00000000E+00
  0.00000000E+00  0.00000000E+00  0.00000000E+00
  0.00000000E+00  0.00000000E+00  0.00000000E+00
  0.00000000E+00  0.00000000E+00  0.00000000E+00
  0.00000000E+00  0.00000000E+00  0.00000000E+00
  0.00000000E+00  0.00000000E+00  0.00000000E+00
  0.00000000E+00  0.00000000E+00  0.00000000E+00
  0.00000000E+00  0.00000000E+00  0.00000000E+00
  0.00000000E+00  0.00000000E+00  0.00000000E+00
  0.00000000E+00  0.00000000E+00  0.00000000E+00
  0.00000000E+00  0.00000000E+00  0.00000000E+00
  0.00000000E+00  0.00000000E+00  0.00000000E+00
  0.00000000E+00  0.00000000E+00  0.00000000E+00
  0.00000000E+00  0.00000000E+00  0.00000000E+00
  0.00000000E+00  0.00000000E+00  0.00000000E+00
