MAPbI3                                  
   1.00000000000000     
     7.7519780938171206    0.0013494950331621    0.0235011328801473
     0.0006000958982195    9.4998489982158851    0.1361643132232803
     0.0291077871977918    0.1861939614964231   13.3594871768646843
   Pb   I    C    N    H 
     4    12     4     4    24
Direct
  0.2532142536047272  0.2322492600206305  0.2439727971907784
  0.2468558900901942  0.2334571361019326  0.7443100869083482
  0.7461788809340202  0.7341740537564432  0.2435227651718858
  0.7515593793264438  0.7340043789868258  0.7432646421323914
  0.0989246653635834  0.9122694685171128  0.2377453802848257
  0.9084366339176824  0.0429542568332522  0.7737693107011930
  0.2641027721871638  0.2230857000934785  0.9985052814127180
  0.2342249320050822  0.2234267942026580  0.4985878713475573
  0.4105938140743438  0.5410791754532261  0.2776612717945803
  0.5952252473718518  0.4152981235820525  0.7378223369600887
  0.5939870057009780  0.0464163796615831  0.2733377282080520
  0.9067566020758495  0.4185556468466669  0.2373670859422492
  0.0898579508852929  0.5438557081583715  0.7723724118539276
  0.4034531516266942  0.9160078797704045  0.7407848391788220
  0.7291164512298900  0.7263251491171168  0.9976826545627323
  0.7669239489669829  0.7264250080334248  0.4972672232028790
  0.2379450649802067  0.6803619565601936  0.0266709275017914
  0.7545587347500483  0.1967304514355871  0.0254908318249357
  0.7443055081539549  0.1933799703054972  0.5260294549183944
  0.2552138231373814  0.6999657200634306  0.5267750752063837
  0.1842505022212682  0.8171764078142075  0.9760909271416059
  0.8189826604008458  0.3282613499827376  0.9718799089834701
  0.6832273720789758  0.3265076042380248  0.4733984077356878
  0.3219115612886659  0.8298737148203585  0.4721111811421582
  0.3610380086969229  0.6966162953989140  0.0633715055998484
  0.2498000123410255  0.6009541176283640  0.9695878389129854
  0.1393347708005382  0.6501379864217729  0.0817464302179689
  0.0562712357357532  0.8122778537746043  0.9542860136507162
  0.1938136355846056  0.8998244741715372  0.0244522114174655
  0.2586041507571162  0.8412449529362583  0.9129296780182572
  0.7492605975878577  0.1125747692650670  0.9715915033068105
  0.8438586137953323  0.1699275972412841  0.0858534300864002
  0.6268002209583939  0.2179680416198436  0.0556099407051575
  0.9496328031345739  0.3191784171948618  0.9560238729982063
  0.8042375731591869  0.4157300510343397  0.0154123336620268
  0.7540727571592566  0.3478001571384360  0.9050363883491064
  0.6484279293160597  0.1623537497069175  0.5824773699320840
  0.7583877963182468  0.1120776718763412  0.4704356911167928
  0.8673933801136458  0.2148049891580053  0.5612347045119198
  0.6925075885063130  0.4119482973974196  0.5192597661211521
  0.7537389258838297  0.3492689932615152  0.4085801642251793
  0.5544461321199873  0.3176430908438148  0.4539310424768225
  0.2399063697907721  0.6169548422949870  0.4726656854589891
  0.3485069087912027  0.6687778281774823  0.5840516368740217
  0.1319619345495011  0.7253346125755351  0.5611731795043802
  0.4521100866935253  0.8187221216006216  0.4556473257100851
  0.3097246974992038  0.9181884251051379  0.5150637361480201
  0.2563590643351018  0.8495453698216091  0.4055061496881247
 
  0.00000000E+00  0.00000000E+00  0.00000000E+00
  0.00000000E+00  0.00000000E+00  0.00000000E+00
  0.00000000E+00  0.00000000E+00  0.00000000E+00
  0.00000000E+00  0.00000000E+00  0.00000000E+00
  0.00000000E+00  0.00000000E+00  0.00000000E+00
  0.00000000E+00  0.00000000E+00  0.00000000E+00
  0.00000000E+00  0.00000000E+00  0.00000000E+00
  0.00000000E+00  0.00000000E+00  0.00000000E+00
  0.00000000E+00  0.00000000E+00  0.00000000E+00
  0.00000000E+00  0.00000000E+00  0.00000000E+00
  0.00000000E+00  0.00000000E+00  0.00000000E+00
  0.00000000E+00  0.00000000E+00  0.00000000E+00
  0.00000000E+00  0.00000000E+00  0.00000000E+00
  0.00000000E+00  0.00000000E+00  0.00000000E+00
  0.00000000E+00  0.00000000E+00  0.00000000E+00
  0.00000000E+00  0.00000000E+00  0.00000000E+00
  0.00000000E+00  0.00000000E+00  0.00000000E+00
  0.00000000E+00  0.00000000E+00  0.00000000E+00
  0.00000000E+00  0.00000000E+00  0.00000000E+00
  0.00000000E+00  0.00000000E+00  0.00000000E+00
  0.00000000E+00  0.00000000E+00  0.00000000E+00
  0.00000000E+00  0.00000000E+00  0.00000000E+00
  0.00000000E+00  0.00000000E+00  0.00000000E+00
  0.00000000E+00  0.00000000E+00  0.00000000E+00
  0.00000000E+00  0.00000000E+00  0.00000000E+00
  0.00000000E+00  0.00000000E+00  0.00000000E+00
  0.00000000E+00  0.00000000E+00  0.00000000E+00
  0.00000000E+00  0.00000000E+00  0.00000000E+00
  0.00000000E+00  0.00000000E+00  0.00000000E+00
  0.00000000E+00  0.00000000E+00  0.00000000E+00
  0.00000000E+00  0.00000000E+00  0.00000000E+00
  0.00000000E+00  0.00000000E+00  0.00000000E+00
  0.00000000E+00  0.00000000E+00  0.00000000E+00
  0.00000000E+00  0.00000000E+00  0.00000000E+00
  0.00000000E+00  0.00000000E+00  0.00000000E+00
  0.00000000E+00  0.00000000E+00  0.00000000E+00
  0.00000000E+00  0.00000000E+00  0.00000000E+00
  0.00000000E+00  0.00000000E+00  0.00000000E+00
  0.00000000E+00  0.00000000E+00  0.00000000E+00
  0.00000000E+00  0.00000000E+00  0.00000000E+00
  0.00000000E+00  0.00000000E+00  0.00000000E+00
  0.00000000E+00  0.00000000E+00  0.00000000E+00
  0.00000000E+00  0.00000000E+00  0.00000000E+00
  0.00000000E+00  0.00000000E+00  0.00000000E+00
  0.00000000E+00  0.00000000E+00  0.00000000E+00
  0.00000000E+00  0.00000000E+00  0.00000000E+00
  0.00000000E+00  0.00000000E+00  0.00000000E+00
  0.00000000E+00  0.00000000E+00  0.00000000E+00
