MAPbI3                                  
   1.00000000000000     
     6.9425837557645504    0.0007073568730784    0.0090071714322988
    -0.0010833330315246    9.8658055813796857    0.4932797263636787
     0.0042170813961003    0.6844895567677304   14.2651314250681480
   Pb   I    C    N    H 
     4    12     4     4    24
Direct
  0.2515291963304346  0.2502542422646554  0.2372269481744010
  0.2492111468780464  0.2473107037199499  0.7378418709093169
  0.7365663459564528  0.7536872841311860  0.2293387911459500
  0.7645358734802367  0.7519453082470047  0.7272020144567598
  0.1361995946011297  0.9281089480067696  0.2143352113668019
  0.8728794322916537  0.0802205505478321  0.7942660788182435
  0.3251984139015900  0.2918447415770484  0.0228735296342751
  0.1759559609460263  0.2884265810594143  0.5237850431830950
  0.3832392922831172  0.5541762560029021  0.3038320164919912
  0.6276997612339318  0.4535934134832140  0.6987861051450206
  0.6267017686380758  0.0803475935429782  0.2939828251684243
  0.8729591141678802  0.4540584151787296  0.1996767918239593
  0.1165920419111556  0.5537026901409229  0.8032261185718739
  0.3639724011695077  0.9268811485976796  0.7146511626511278
  0.6916980752120900  0.8004309516276282  0.0121472686749744
  0.8059888360010179  0.7996686457890181  0.5096388662029514
  0.2085064546476539  0.6744649842955603  0.0288306732133174
  0.8145147424941022  0.1773165192688809  0.0303772583640227
  0.6860053065044834  0.1752279285115866  0.5308376343998558
  0.2909223056892327  0.6744483968244294  0.5292027906849213
  0.1992566210495341  0.8091898837519267  0.9693464187573015
  0.8165134208481002  0.3112722967335342  0.9701628931513115
  0.6845940474461567  0.3092208113159413  0.4705917804429115
  0.2992373706331571  0.8089203776302610  0.4692950488325071
  0.2308148762355723  0.6943959611858052  0.1018123596831278
  0.3274620483096771  0.6157605859912370  0.0038705643140034
  0.0721956296010519  0.6221857648574921  0.0212415001406726
  0.2028139941758462  0.7952862440081371  0.8984135663660534
  0.0727996157756717  0.8595462300173190  0.9824588122343342
  0.3167528024257273  0.8684046317574702  0.9831065038253535
  0.6952890718792587  0.1167122620947389  0.0079039881564992
  0.9514196529621124  0.1265613629524681  0.0206012700235968
  0.7954972818824574  0.1976763996808887  0.1035009462164893
  0.8165196784101838  0.2951082328808125  0.8995478716752913
  0.9384560277364979  0.3665613060644436  0.9828178679528620
  0.6950844717839711  0.3669277337970101  0.9835179019387442
  0.5495592565190373  0.1242291270606734  0.5207305555950146
  0.8059086713076937  0.1149108636688191  0.5085723449033626
  0.7039323580663918  0.1955594877411848  0.6040138307264370
  0.5622300392884690  0.3643359679008965  0.4828840887902899
  0.8054999424064491  0.3650357075067586  0.4843253274415384
  0.6860219505541804  0.2929969908553667  0.3999790933054755
  0.1723121714453697  0.6151871773810593  0.5046649717739097
  0.4275171631358236  0.6225423617163525  0.5214076112756449
  0.2687635164018075  0.6947802423089779  0.6021353529747892
  0.2960840296959269  0.7945177388995976  0.3984363202460916
  0.4252770876310997  0.8598682680974373  0.4820661513163406
  0.1813131380548801  0.8678866793258905  0.4828840588588454
 
  0.00000000E+00  0.00000000E+00  0.00000000E+00
  0.00000000E+00  0.00000000E+00  0.00000000E+00
  0.00000000E+00  0.00000000E+00  0.00000000E+00
  0.00000000E+00  0.00000000E+00  0.00000000E+00
  0.00000000E+00  0.00000000E+00  0.00000000E+00
  0.00000000E+00  0.00000000E+00  0.00000000E+00
  0.00000000E+00  0.00000000E+00  0.00000000E+00
  0.00000000E+00  0.00000000E+00  0.00000000E+00
  0.00000000E+00  0.00000000E+00  0.00000000E+00
  0.00000000E+00  0.00000000E+00  0.00000000E+00
  0.00000000E+00  0.00000000E+00  0.00000000E+00
  0.00000000E+00  0.00000000E+00  0.00000000E+00
  0.00000000E+00  0.00000000E+00  0.00000000E+00
  0.00000000E+00  0.00000000E+00  0.00000000E+00
  0.00000000E+00  0.00000000E+00  0.00000000E+00
  0.00000000E+00  0.00000000E+00  0.00000000E+00
  0.00000000E+00  0.00000000E+00  0.00000000E+00
  0.00000000E+00  0.00000000E+00  0.00000000E+00
  0.00000000E+00  0.00000000E+00  0.00000000E+00
  0.00000000E+00  0.00000000E+00  0.00000000E+00
  0.00000000E+00  0.00000000E+00  0.00000000E+00
  0.00000000E+00  0.00000000E+00  0.00000000E+00
  0.00000000E+00  0.00000000E+00  0.00000000E+00
  0.00000000E+00  0.00000000E+00  0.00000000E+00
  0.00000000E+00  0.00000000E+00  0.00000000E+00
  0.00000000E+00  0.00000000E+00  0.00000000E+00
  0.00000000E+00  0.00000000E+00  0.00000000E+00
  0.00000000E+00  0.00000000E+00  0.00000000E+00
  0.00000000E+00  0.00000000E+00  0.00000000E+00
  0.00000000E+00  0.00000000E+00  0.00000000E+00
  0.00000000E+00  0.00000000E+00  0.00000000E+00
  0.00000000E+00  0.00000000E+00  0.00000000E+00
  0.00000000E+00  0.00000000E+00  0.00000000E+00
  0.00000000E+00  0.00000000E+00  0.00000000E+00
  0.00000000E+00  0.00000000E+00  0.00000000E+00
  0.00000000E+00  0.00000000E+00  0.00000000E+00
  0.00000000E+00  0.00000000E+00  0.00000000E+00
  0.00000000E+00  0.00000000E+00  0.00000000E+00
  0.00000000E+00  0.00000000E+00  0.00000000E+00
  0.00000000E+00  0.00000000E+00  0.00000000E+00
  0.00000000E+00  0.00000000E+00  0.00000000E+00
  0.00000000E+00  0.00000000E+00  0.00000000E+00
  0.00000000E+00  0.00000000E+00  0.00000000E+00
  0.00000000E+00  0.00000000E+00  0.00000000E+00
  0.00000000E+00  0.00000000E+00  0.00000000E+00
  0.00000000E+00  0.00000000E+00  0.00000000E+00
  0.00000000E+00  0.00000000E+00  0.00000000E+00
  0.00000000E+00  0.00000000E+00  0.00000000E+00
