MAPbI3                                  
   1.00000000000000     
     7.0831971173995996    0.0008202878300159    0.0051867945724809
    -0.0006666464775764    9.6435395363301453    0.3333870414757417
    -0.0031170098290574    0.4476938795444527   14.1067171300874108
   Pb   I    C    N    H 
     4    12     4     4    24
Direct
  0.2650385471815354  0.2509317850330818  0.2212544617844090
  0.2344577026469772  0.2505247012999127  0.7224051701802510
  0.7353117240943594  0.7534198712817974  0.2210907655946087
  0.7645713460208968  0.7532891208374551  0.7208675080925810
  0.1226295939338873  0.9326933941783346  0.2117024009750300
  0.8856569753640047  0.0667250757459881  0.7948176949884580
  0.3055139324318549  0.2660648996390515  0.9983467974761963
  0.1945889269174877  0.2658488811084835  0.4993036310394779
  0.3951680607017195  0.5592454981877452  0.2968077454572976
  0.6147842264286913  0.4395369073865887  0.7081553690909436
  0.6137969358111003  0.0677647948802060  0.2945149337818329
  0.8852243880499799  0.4399658039665474  0.2081016365989194
  0.1048560797054927  0.5593563891300662  0.7974320155274454
  0.3756987092306954  0.9309202165594983  0.7112722901144661
  0.6984945656152068  0.7712322846780095  0.9983355467748730
  0.8016321067352767  0.7709506494894605  0.4981060258277457
  0.2164019134093544  0.6744460543248706  0.0296041148357719
  0.7879624380317569  0.1798966611642067  0.0288538100123621
  0.7117138940039539  0.1762974799270607  0.5306602381857719
  0.2844832579591718  0.6729958369809144  0.5291379217204409
  0.2104625120629914  0.8156189077896058  0.9769237888776079
  0.7919611277232521  0.3211364972578509  0.9763618369429123
  0.7079132788819843  0.3167298792064093  0.4771224239061542
  0.2896043899556995  0.8141359718542440  0.4765750305128841
  0.2798709558685148  0.6860548275735524  0.0989702262634971
  0.3006152670703950  0.6056631981665449  0.9883944163324481
  0.0720855775869978  0.6363701040415772  0.0373537993661415
  0.1414707753150800  0.8128310585314745  0.9127352651470387
  0.1434364919024764  0.8861210043441601  0.0175752460543186
  0.3473337569714638  0.8502126767492990  0.9638949052946569
  0.7067689056127437  0.1098511129726164  0.9873181901202365
  0.9330305023944796  0.1436790860754945  0.0374794155815609
  0.7224512083707809  0.1905874028101368  0.0978689247372460
  0.8675483144900188  0.3211199884573129  0.9138702127517709
  0.8511497186782717  0.3929857215014710  0.0188473900303672
  0.6548815042712596  0.3523409757381443  0.9604043806263791
  0.5667269903264283  0.1398151085402895  0.5391236413691183
  0.7939324040315047  0.1058064515256671  0.4898749960613161
  0.7762105104427329  0.1882234962186081  0.5997179358671664
  0.6453432472258218  0.3888728594890686  0.5181999560179839
  0.8452892041381882  0.3487501497330506  0.4624920288251176
  0.6356229847986018  0.3145575717115945  0.4138106317456672
  0.2000511303818248  0.6040179057454059  0.4882401810781279
  0.4289706780964012  0.6351373335678877  0.5363929411394658
  0.2219501436355239  0.6843161340306636  0.5987887551665102
  0.3579073119238366  0.8114460679252131  0.4121673143621233
  0.3569246558547116  0.8846897305821828  0.5170323545984661
  0.1525031277145922  0.8485184720611356  0.4640417331648895
 
  0.00000000E+00  0.00000000E+00  0.00000000E+00
  0.00000000E+00  0.00000000E+00  0.00000000E+00
  0.00000000E+00  0.00000000E+00  0.00000000E+00
  0.00000000E+00  0.00000000E+00  0.00000000E+00
  0.00000000E+00  0.00000000E+00  0.00000000E+00
  0.00000000E+00  0.00000000E+00  0.00000000E+00
  0.00000000E+00  0.00000000E+00  0.00000000E+00
  0.00000000E+00  0.00000000E+00  0.00000000E+00
  0.00000000E+00  0.00000000E+00  0.00000000E+00
  0.00000000E+00  0.00000000E+00  0.00000000E+00
  0.00000000E+00  0.00000000E+00  0.00000000E+00
  0.00000000E+00  0.00000000E+00  0.00000000E+00
  0.00000000E+00  0.00000000E+00  0.00000000E+00
  0.00000000E+00  0.00000000E+00  0.00000000E+00
  0.00000000E+00  0.00000000E+00  0.00000000E+00
  0.00000000E+00  0.00000000E+00  0.00000000E+00
  0.00000000E+00  0.00000000E+00  0.00000000E+00
  0.00000000E+00  0.00000000E+00  0.00000000E+00
  0.00000000E+00  0.00000000E+00  0.00000000E+00
  0.00000000E+00  0.00000000E+00  0.00000000E+00
  0.00000000E+00  0.00000000E+00  0.00000000E+00
  0.00000000E+00  0.00000000E+00  0.00000000E+00
  0.00000000E+00  0.00000000E+00  0.00000000E+00
  0.00000000E+00  0.00000000E+00  0.00000000E+00
  0.00000000E+00  0.00000000E+00  0.00000000E+00
  0.00000000E+00  0.00000000E+00  0.00000000E+00
  0.00000000E+00  0.00000000E+00  0.00000000E+00
  0.00000000E+00  0.00000000E+00  0.00000000E+00
  0.00000000E+00  0.00000000E+00  0.00000000E+00
  0.00000000E+00  0.00000000E+00  0.00000000E+00
  0.00000000E+00  0.00000000E+00  0.00000000E+00
  0.00000000E+00  0.00000000E+00  0.00000000E+00
  0.00000000E+00  0.00000000E+00  0.00000000E+00
  0.00000000E+00  0.00000000E+00  0.00000000E+00
  0.00000000E+00  0.00000000E+00  0.00000000E+00
  0.00000000E+00  0.00000000E+00  0.00000000E+00
  0.00000000E+00  0.00000000E+00  0.00000000E+00
  0.00000000E+00  0.00000000E+00  0.00000000E+00
  0.00000000E+00  0.00000000E+00  0.00000000E+00
  0.00000000E+00  0.00000000E+00  0.00000000E+00
  0.00000000E+00  0.00000000E+00  0.00000000E+00
  0.00000000E+00  0.00000000E+00  0.00000000E+00
  0.00000000E+00  0.00000000E+00  0.00000000E+00
  0.00000000E+00  0.00000000E+00  0.00000000E+00
  0.00000000E+00  0.00000000E+00  0.00000000E+00
  0.00000000E+00  0.00000000E+00  0.00000000E+00
  0.00000000E+00  0.00000000E+00  0.00000000E+00
  0.00000000E+00  0.00000000E+00  0.00000000E+00
