MAPbI3                                  
   1.00000000000000     
     7.5223296619442017    0.0043669111647247    0.0066060370159362
     0.0038414910117529    9.5746360545292770    0.2129502410269668
    -0.0006281552845772    0.2940062898001512   13.4399204174152676
   Pb   I    C    N    H 
     4    12     4     4    24
Direct
  0.2556079966879594  0.2367012658501763  0.2383842869403807
  0.2439588765755175  0.2364550623574048  0.7395041749621477
  0.7442419118109752  0.7371815543028328  0.2372597076233193
  0.7549354636030583  0.7382041027358635  0.7373857390438360
  0.1052594896250546  0.9177181552687224  0.2274620290976442
  0.9003852848167221  0.0478941815676784  0.7837101685932168
  0.2801209352383054  0.2317566544547990  0.9937401808026831
  0.2188365561293560  0.2311835107340270  0.4941263093372845
  0.4025129854571417  0.5467222515323706  0.2819342529110552
  0.6021043873938806  0.4204247022581193  0.7319470944918557
  0.6006969139617668  0.0492791421781374  0.2816971370921733
  0.8976751177230899  0.4205660867946520  0.2320078051418646
  0.0980437787519051  0.5481672592200366  0.7760186919102273
  0.3952854831441066  0.9197531316333677  0.7309188448991192
  0.7176939972634333  0.7312140329100384  0.9944354779542228
  0.7793689515005510  0.7315032687473552  0.4942488131345007
  0.2297009017410980  0.6796817146467790  0.0262454996870050
  0.7666771019300503  0.1916356720586395  0.0309839803192922
  0.7316719921001961  0.1884500822928188  0.5319996024661247
  0.2670904080314852  0.6953383595464189  0.5282695753570986
  0.1917904266686626  0.8181886126871123  0.9726021988818038
  0.8112509005192424  0.3257901668584542  0.9732585205228158
  0.6905572640848324  0.3240461140983342  0.4752550902738867
  0.3120054359291818  0.8296324000753206  0.4709264397098162
  0.3456384046962918  0.6917441049365863  0.0733037453654059
  0.2544518909745683  0.6021371809055873  0.9707947056452751
  0.1138936981665580  0.6506060147185386  0.0714644853574732
  0.0640692958444752  0.8199013019143506  0.9438854884531651
  0.1993945851615883  0.8989126964808936  0.0210578675228967
  0.2787739507032922  0.8394260557024490  0.9139352850545721
  0.7377693764708291  0.1116023856286587  0.9780274210944826
  0.8812487923946346  0.1613657481052959  0.0767278251665970
  0.6518754924973523  0.2103891398407301  0.0776276239915343
  0.9405763715907469  0.3227097296766355  0.9468372316454381
  0.8030649933271423  0.4104496369320550  0.0182005362664551
  0.7278732699600068  0.3445434951212313  0.9126218824643009
  0.6160115426412565  0.1592328460318183  0.5772316272429111
  0.7592641116054386  0.1089155863370461  0.4783476390528603
  0.8465047278199428  0.2045987207711840  0.5790887865446305
  0.6966208823371808  0.4074076406786851  0.5214901855635304
  0.7770275748905732  0.3438225609079884  0.4161520971016057
  0.5627740404952776  0.3226334616235224  0.4466573702109253
  0.2396627082698673  0.6152956701600841  0.4750535754993710
  0.3808964067616352  0.6652867829047016  0.5746882782210623
  0.1512448148681657  0.7136052622092480  0.5742258371138578
  0.4419799645611037  0.8273695889607158  0.4454240086824134
  0.3018546894574738  0.9144995475224207  0.5155564038473697
  0.2300578538171333  0.8477533571199988  0.4096264717385457
 
  0.00000000E+00  0.00000000E+00  0.00000000E+00
  0.00000000E+00  0.00000000E+00  0.00000000E+00
  0.00000000E+00  0.00000000E+00  0.00000000E+00
  0.00000000E+00  0.00000000E+00  0.00000000E+00
  0.00000000E+00  0.00000000E+00  0.00000000E+00
  0.00000000E+00  0.00000000E+00  0.00000000E+00
  0.00000000E+00  0.00000000E+00  0.00000000E+00
  0.00000000E+00  0.00000000E+00  0.00000000E+00
  0.00000000E+00  0.00000000E+00  0.00000000E+00
  0.00000000E+00  0.00000000E+00  0.00000000E+00
  0.00000000E+00  0.00000000E+00  0.00000000E+00
  0.00000000E+00  0.00000000E+00  0.00000000E+00
  0.00000000E+00  0.00000000E+00  0.00000000E+00
  0.00000000E+00  0.00000000E+00  0.00000000E+00
  0.00000000E+00  0.00000000E+00  0.00000000E+00
  0.00000000E+00  0.00000000E+00  0.00000000E+00
  0.00000000E+00  0.00000000E+00  0.00000000E+00
  0.00000000E+00  0.00000000E+00  0.00000000E+00
  0.00000000E+00  0.00000000E+00  0.00000000E+00
  0.00000000E+00  0.00000000E+00  0.00000000E+00
  0.00000000E+00  0.00000000E+00  0.00000000E+00
  0.00000000E+00  0.00000000E+00  0.00000000E+00
  0.00000000E+00  0.00000000E+00  0.00000000E+00
  0.00000000E+00  0.00000000E+00  0.00000000E+00
  0.00000000E+00  0.00000000E+00  0.00000000E+00
  0.00000000E+00  0.00000000E+00  0.00000000E+00
  0.00000000E+00  0.00000000E+00  0.00000000E+00
  0.00000000E+00  0.00000000E+00  0.00000000E+00
  0.00000000E+00  0.00000000E+00  0.00000000E+00
  0.00000000E+00  0.00000000E+00  0.00000000E+00
  0.00000000E+00  0.00000000E+00  0.00000000E+00
  0.00000000E+00  0.00000000E+00  0.00000000E+00
  0.00000000E+00  0.00000000E+00  0.00000000E+00
  0.00000000E+00  0.00000000E+00  0.00000000E+00
  0.00000000E+00  0.00000000E+00  0.00000000E+00
  0.00000000E+00  0.00000000E+00  0.00000000E+00
  0.00000000E+00  0.00000000E+00  0.00000000E+00
  0.00000000E+00  0.00000000E+00  0.00000000E+00
  0.00000000E+00  0.00000000E+00  0.00000000E+00
  0.00000000E+00  0.00000000E+00  0.00000000E+00
  0.00000000E+00  0.00000000E+00  0.00000000E+00
  0.00000000E+00  0.00000000E+00  0.00000000E+00
  0.00000000E+00  0.00000000E+00  0.00000000E+00
  0.00000000E+00  0.00000000E+00  0.00000000E+00
  0.00000000E+00  0.00000000E+00  0.00000000E+00
  0.00000000E+00  0.00000000E+00  0.00000000E+00
  0.00000000E+00  0.00000000E+00  0.00000000E+00
  0.00000000E+00  0.00000000E+00  0.00000000E+00
