MAPbI3                                  
   1.00000000000000     
    10.1546370911020603    0.0762532024613810   -0.0373500746290162
     0.0649038009906216    8.3645235001284757   -0.2111240822960887
    -0.0476344629126991   -0.3068800785433736   12.7215974251525541
   Pb   I    C    N    H 
     4    12     4     4    24
Direct
  0.2726645359196342  0.2423303370075147  0.2575374459463377
  0.2844507712371207  0.2344902552188493  0.7504657168928230
  0.7884412837281147  0.7300208353000154  0.2515309239618838
  0.7732752087442905  0.7447579142996795  0.7571325878107842
  0.0596396221593968  0.9033285753985809  0.2379664967855598
  0.9613789360340785  0.0358956205943837  0.7781874217859459
  0.2732850581354210  0.2271839642598734  0.0047279044467880
  0.2035622614303869  0.2195965849209242  0.5051392142288124
  0.4608242403156825  0.5330243919082962  0.2783216511140746
  0.5519601316940957  0.4151505165751663  0.7356085671965009
  0.5274218913163566  0.0244073393545391  0.2812365303828310
  0.9359525121576292  0.3989897125896481  0.2439565022052700
  0.0283450774781521  0.5274831925031712  0.7802512310600587
  0.4412575394515248  0.9094555062647925  0.7420348178020821
  0.7117257154714326  0.7246949774271775  0.0055174978065097
  0.7759689309345391  0.7240064987378447  0.5044713575705965
  0.3074706615776124  0.7234120266775432  0.0110317025117409
  0.6900895195567344  0.2243193674309182  0.0137446766691635
  0.7999991996776051  0.2189853645581462  0.5149995727247283
  0.1978692263783114  0.7190593774549746  0.5170218859209654
  0.1810667876463844  0.8017822276085804  0.9758459850244136
  0.8154976580028651  0.3013245540047894  0.9809290322030025
  0.6768249198289911  0.3007469041055467  0.4764697452272539
  0.3188265006525990  0.8022045102788569  0.4809373428895741
  0.3553378812196215  0.8041597655801416  0.0691307608210108
  0.3705115049500294  0.7020300916651758  0.9424663347792867
  0.2835528208731246  0.6108242650181644  0.0458299000317599
  0.1333390350729993  0.7317440171437357  0.9178316066016603
  0.1184005466005863  0.8211673064155257  0.0395497887426350
  0.1984700456808931  0.9128922452162258  0.9471015959370491
  0.7149180613865291  0.1081679613220098  0.0447780373556775
  0.6431372042401877  0.3024349752268889  0.0743057156266743
  0.6258571379503279  0.2098508235623752  0.9447595643649731
  0.8791685186041640  0.3155386149137904  0.0449232403486726
  0.7966920645717008  0.4149213317595148  0.9551908706591838
  0.8626001154015950  0.2334866021446425  0.9212035345157769
  0.8468438436034547  0.2982102927718476  0.5745553413218923
  0.7723086406365913  0.1069697418825634  0.5488000480416469
  0.8657441910329758  0.1960552842080545  0.4482250864843692
  0.6979789667182239  0.4106582240770663  0.4474436769475803
  0.6297526345401059  0.2313971778574143  0.4177638478158868
  0.6122980361160951  0.3233057548812475  0.5385938242082268
  0.2279530033915295  0.6035612248851006  0.5464674088598863
  0.1516073188591471  0.7941519116154273  0.5794696215710435
  0.1307609282307018  0.7025908753712852  0.4499659028174786
  0.3846849737574890  0.8194852851669795  0.5431780200954285
  0.2949018322208435  0.9148701989860700  0.4557811510039899
  0.3653845048121773  0.7365714738489434  0.4199673108805868
 
  0.00000000E+00  0.00000000E+00  0.00000000E+00
  0.00000000E+00  0.00000000E+00  0.00000000E+00
  0.00000000E+00  0.00000000E+00  0.00000000E+00
  0.00000000E+00  0.00000000E+00  0.00000000E+00
  0.00000000E+00  0.00000000E+00  0.00000000E+00
  0.00000000E+00  0.00000000E+00  0.00000000E+00
  0.00000000E+00  0.00000000E+00  0.00000000E+00
  0.00000000E+00  0.00000000E+00  0.00000000E+00
  0.00000000E+00  0.00000000E+00  0.00000000E+00
  0.00000000E+00  0.00000000E+00  0.00000000E+00
  0.00000000E+00  0.00000000E+00  0.00000000E+00
  0.00000000E+00  0.00000000E+00  0.00000000E+00
  0.00000000E+00  0.00000000E+00  0.00000000E+00
  0.00000000E+00  0.00000000E+00  0.00000000E+00
  0.00000000E+00  0.00000000E+00  0.00000000E+00
  0.00000000E+00  0.00000000E+00  0.00000000E+00
  0.00000000E+00  0.00000000E+00  0.00000000E+00
  0.00000000E+00  0.00000000E+00  0.00000000E+00
  0.00000000E+00  0.00000000E+00  0.00000000E+00
  0.00000000E+00  0.00000000E+00  0.00000000E+00
  0.00000000E+00  0.00000000E+00  0.00000000E+00
  0.00000000E+00  0.00000000E+00  0.00000000E+00
  0.00000000E+00  0.00000000E+00  0.00000000E+00
  0.00000000E+00  0.00000000E+00  0.00000000E+00
  0.00000000E+00  0.00000000E+00  0.00000000E+00
  0.00000000E+00  0.00000000E+00  0.00000000E+00
  0.00000000E+00  0.00000000E+00  0.00000000E+00
  0.00000000E+00  0.00000000E+00  0.00000000E+00
  0.00000000E+00  0.00000000E+00  0.00000000E+00
  0.00000000E+00  0.00000000E+00  0.00000000E+00
  0.00000000E+00  0.00000000E+00  0.00000000E+00
  0.00000000E+00  0.00000000E+00  0.00000000E+00
  0.00000000E+00  0.00000000E+00  0.00000000E+00
  0.00000000E+00  0.00000000E+00  0.00000000E+00
  0.00000000E+00  0.00000000E+00  0.00000000E+00
  0.00000000E+00  0.00000000E+00  0.00000000E+00
  0.00000000E+00  0.00000000E+00  0.00000000E+00
  0.00000000E+00  0.00000000E+00  0.00000000E+00
  0.00000000E+00  0.00000000E+00  0.00000000E+00
  0.00000000E+00  0.00000000E+00  0.00000000E+00
  0.00000000E+00  0.00000000E+00  0.00000000E+00
  0.00000000E+00  0.00000000E+00  0.00000000E+00
  0.00000000E+00  0.00000000E+00  0.00000000E+00
  0.00000000E+00  0.00000000E+00  0.00000000E+00
  0.00000000E+00  0.00000000E+00  0.00000000E+00
  0.00000000E+00  0.00000000E+00  0.00000000E+00
  0.00000000E+00  0.00000000E+00  0.00000000E+00
  0.00000000E+00  0.00000000E+00  0.00000000E+00
