MAPbI3                                  
   1.00000000000000     
     9.7574169292444513   -0.0009561335773350    0.0017804652782705
    -0.0003049535585979    8.3904291145265599   -0.2441917467970249
     0.0052620612741731   -0.3538955518957129   12.9061628641637416
   Pb   I    C    N    H 
     4    12     4     4    24
Direct
  0.2437559226506739  0.2310272508822836  0.2546892950436518
  0.2538642375626439  0.2395861651466703  0.7549579831313677
  0.7600941308738266  0.7295305950732923  0.2548019253067443
  0.7408739250795405  0.7382964934506867  0.7548821521324155
  0.0673469941260876  0.8955489280120199  0.2470673504109223
  0.9594336301412203  0.0369493224730220  0.7682943484904324
  0.2526023272251798  0.2314805064401833  0.0053882564272853
  0.2365860501967059  0.2249926478448055  0.5051450725354226
  0.4623677431074599  0.5306833478654915  0.2687209056707496
  0.5585231158427079  0.4087142999888461  0.7471391639794039
  0.5368009542886673  0.0298728412118118  0.2682662637108628
  0.9335675130316849  0.3966972155592217  0.2479566243856569
  0.0389044306586628  0.5382065926315919  0.7676982637763242
  0.4396266119419249  0.9103078241419799  0.7465706499872218
  0.7418996598514234  0.7283179618025230  0.0058143472388142
  0.7612392846512784  0.7245327533828003  0.5057152854450646
  0.3058240284414168  0.7243002564866164  0.0125915586008589
  0.6988113681435176  0.2243352249389823  0.0153684942652086
  0.7885732866619942  0.2207160171952584  0.5165925291400679
  0.2099379112691971  0.7202279643379498  0.5161974587107272
  0.1740423466644892  0.7996871659409881  0.9787301405734171
  0.8283331468685947  0.3011286166980078  0.9784600765999868
  0.6611938220221161  0.3005091588145129  0.4784903135050094
  0.3365384074804349  0.8015383948498559  0.4779997327279135
  0.3536108201330292  0.8042729783709461  0.0717752742131421
  0.3726318800978862  0.7075389549218425  0.9449359781951013
  0.2814500712931392  0.6099465161104084  0.0444663422517662
  0.1275458122248974  0.7313133374917328  0.9187770935560081
  0.1066830201021312  0.8129100611513003  0.0407972969782977
  0.1913849649055985  0.9130241359934347  0.9538053151214336
  0.7248311114160653  0.1075572254386940  0.0429860022487712
  0.6552806629118336  0.3008476991994599  0.0782962459865942
  0.6275059338288388  0.2122903281566880  0.9501642740473443
  0.8991480830712650  0.3119498945852047  0.0382208408497855
  0.8092671206909606  0.4156294227345619  0.9561214300873199
  0.8716362620072806  0.2347935796019458  0.9161694646060836
  0.8285037411848544  0.2924262226273404  0.5830938223943078
  0.7610370262995699  0.1015841185800405  0.5394140101223809
  0.8633310560417085  0.2136339142231445  0.4534646034166555
  0.6822248982526199  0.4158388959326498  0.4585488781436203
  0.6198238103680925  0.2370891459082834  0.4143065244217807
  0.5880909786059376  0.3098770977719371  0.5366917647364845
  0.2386754311193224  0.6018726787391060  0.5396712387485633
  0.1687258991384799  0.7920329274290785  0.5822251524634714
  0.1355733997417880  0.7111819171009743  0.4528912425912198
  0.4094939124889163  0.8120111599788817  0.5362065389588426
  0.3143231608472766  0.9164740689336672  0.4578768658615391
  0.3784820944471479  0.7384121738492414  0.4139036082040055
 
  0.00000000E+00  0.00000000E+00  0.00000000E+00
  0.00000000E+00  0.00000000E+00  0.00000000E+00
  0.00000000E+00  0.00000000E+00  0.00000000E+00
  0.00000000E+00  0.00000000E+00  0.00000000E+00
  0.00000000E+00  0.00000000E+00  0.00000000E+00
  0.00000000E+00  0.00000000E+00  0.00000000E+00
  0.00000000E+00  0.00000000E+00  0.00000000E+00
  0.00000000E+00  0.00000000E+00  0.00000000E+00
  0.00000000E+00  0.00000000E+00  0.00000000E+00
  0.00000000E+00  0.00000000E+00  0.00000000E+00
  0.00000000E+00  0.00000000E+00  0.00000000E+00
  0.00000000E+00  0.00000000E+00  0.00000000E+00
  0.00000000E+00  0.00000000E+00  0.00000000E+00
  0.00000000E+00  0.00000000E+00  0.00000000E+00
  0.00000000E+00  0.00000000E+00  0.00000000E+00
  0.00000000E+00  0.00000000E+00  0.00000000E+00
  0.00000000E+00  0.00000000E+00  0.00000000E+00
  0.00000000E+00  0.00000000E+00  0.00000000E+00
  0.00000000E+00  0.00000000E+00  0.00000000E+00
  0.00000000E+00  0.00000000E+00  0.00000000E+00
  0.00000000E+00  0.00000000E+00  0.00000000E+00
  0.00000000E+00  0.00000000E+00  0.00000000E+00
  0.00000000E+00  0.00000000E+00  0.00000000E+00
  0.00000000E+00  0.00000000E+00  0.00000000E+00
  0.00000000E+00  0.00000000E+00  0.00000000E+00
  0.00000000E+00  0.00000000E+00  0.00000000E+00
  0.00000000E+00  0.00000000E+00  0.00000000E+00
  0.00000000E+00  0.00000000E+00  0.00000000E+00
  0.00000000E+00  0.00000000E+00  0.00000000E+00
  0.00000000E+00  0.00000000E+00  0.00000000E+00
  0.00000000E+00  0.00000000E+00  0.00000000E+00
  0.00000000E+00  0.00000000E+00  0.00000000E+00
  0.00000000E+00  0.00000000E+00  0.00000000E+00
  0.00000000E+00  0.00000000E+00  0.00000000E+00
  0.00000000E+00  0.00000000E+00  0.00000000E+00
  0.00000000E+00  0.00000000E+00  0.00000000E+00
  0.00000000E+00  0.00000000E+00  0.00000000E+00
  0.00000000E+00  0.00000000E+00  0.00000000E+00
  0.00000000E+00  0.00000000E+00  0.00000000E+00
  0.00000000E+00  0.00000000E+00  0.00000000E+00
  0.00000000E+00  0.00000000E+00  0.00000000E+00
  0.00000000E+00  0.00000000E+00  0.00000000E+00
  0.00000000E+00  0.00000000E+00  0.00000000E+00
  0.00000000E+00  0.00000000E+00  0.00000000E+00
  0.00000000E+00  0.00000000E+00  0.00000000E+00
  0.00000000E+00  0.00000000E+00  0.00000000E+00
  0.00000000E+00  0.00000000E+00  0.00000000E+00
  0.00000000E+00  0.00000000E+00  0.00000000E+00
