MAPbI3                                  
   1.00000000000000     
     7.6746789162246305    0.0003785387005199    0.0197195296500541
    -0.0007287433340968    9.5342253766355167    0.1587101671323053
     0.0225282220465526    0.2183339074114225   13.3713128825340206
   Pb   I    C    N    H 
     4    12     4     4    24
Direct
  0.2546102359745369  0.2331658939269606  0.2420022673429225
  0.2464482042882557  0.2327655754043917  0.7429086729437884
  0.7456110628677209  0.7344597502957948  0.2424566079616846
  0.7536136163751975  0.7332727901439883  0.7426352212199462
  0.1004447409965696  0.9143958897385570  0.2337065444902271
  0.9062083082428328  0.0442505686437566  0.7773632826689695
  0.2716614975697836  0.2262401249242475  0.9968367550401133
  0.2284668363613129  0.2261621377758750  0.4971475377723213
  0.4078239994272240  0.5429927880357658  0.2774094161215188
  0.5982259282573787  0.4167289681706547  0.7370925434353662
  0.5966845826397394  0.0472176094756304  0.2769611760859550
  0.9042911823483999  0.4193406394259285  0.2367863490628062
  0.0943275761367602  0.5442938004742218  0.7722941047655110
  0.4026728006572610  0.9164763429167515  0.7369666976200093
  0.7269853415934846  0.7260996301078377  0.9967846499860785
  0.7673075983589320  0.7277928669303104  0.4965813092511344
  0.2358671128877876  0.6814861389939708  0.0256916018056876
  0.7606767434124411  0.1934808094027766  0.0285746297234059
  0.7398275940569263  0.1926562964071406  0.5291034354386915
  0.2559283224824609  0.6994923771013117  0.5260186305945164
  0.1861181645202681  0.8185287881185901  0.9740192826663729
  0.8178762624134354  0.3255304396579980  0.9726591543352174
  0.6844806038315383  0.3260637827141765  0.4745120966439517
  0.3177408730841662  0.8308052020021376  0.4709447266112842
  0.3579588188647136  0.6966560012547099  0.0649084930728322
  0.2505323410548220  0.6025491161485794  0.9689865710124479
  0.1326974004938057  0.6518130344605501  0.0786401225251700
  0.0575838463162943  0.8154461927170337  0.9507209428104890
  0.1958435755515549  0.9006901839453152  0.0222638532325199
  0.2635350037105029  0.8415672082796398  0.9116942902871544
  0.7460026105114809  0.1106645302006991  0.9747618465606205
  0.8602025076612443  0.1653529080591814  0.0836268696018278
  0.6373963650316642  0.2143627781946129  0.0655320752192126
  0.9481208476341689  0.3182657477316337  0.9524551737262175
  0.8061553603069056  0.4122205972636077  0.0166372113218828
  0.7457834131615430  0.3446495930357669  0.9080005286697365
  0.6370325685150094  0.1616634797095186  0.5818929288803131
  0.7595751773042855  0.1119821432737236  0.4741167812602865
  0.8600975965048446  0.2132455097724361  0.5687011544505147
  0.6921930825795631  0.4110443531457289  0.5203502821861332
  0.7603308998624431  0.3478416490244877  0.4113593845330175
  0.5558184820517788  0.3189095638554539  0.4519532219483910
  0.2364975915151030  0.6181710398693686  0.4715576648460377
  0.3552854656577352  0.6674669560232860  0.5801747671645824
  0.1344671692348711  0.7230877531962078  0.5640535259008929
  0.4482693944615638  0.8215399538898979  0.4517933065245232
  0.3071624140844121  0.9176000107814218  0.5149153169849490
  0.2475608791453508  0.8512064853782476  0.4057949936927447
 
  0.00000000E+00  0.00000000E+00  0.00000000E+00
  0.00000000E+00  0.00000000E+00  0.00000000E+00
  0.00000000E+00  0.00000000E+00  0.00000000E+00
  0.00000000E+00  0.00000000E+00  0.00000000E+00
  0.00000000E+00  0.00000000E+00  0.00000000E+00
  0.00000000E+00  0.00000000E+00  0.00000000E+00
  0.00000000E+00  0.00000000E+00  0.00000000E+00
  0.00000000E+00  0.00000000E+00  0.00000000E+00
  0.00000000E+00  0.00000000E+00  0.00000000E+00
  0.00000000E+00  0.00000000E+00  0.00000000E+00
  0.00000000E+00  0.00000000E+00  0.00000000E+00
  0.00000000E+00  0.00000000E+00  0.00000000E+00
  0.00000000E+00  0.00000000E+00  0.00000000E+00
  0.00000000E+00  0.00000000E+00  0.00000000E+00
  0.00000000E+00  0.00000000E+00  0.00000000E+00
  0.00000000E+00  0.00000000E+00  0.00000000E+00
  0.00000000E+00  0.00000000E+00  0.00000000E+00
  0.00000000E+00  0.00000000E+00  0.00000000E+00
  0.00000000E+00  0.00000000E+00  0.00000000E+00
  0.00000000E+00  0.00000000E+00  0.00000000E+00
  0.00000000E+00  0.00000000E+00  0.00000000E+00
  0.00000000E+00  0.00000000E+00  0.00000000E+00
  0.00000000E+00  0.00000000E+00  0.00000000E+00
  0.00000000E+00  0.00000000E+00  0.00000000E+00
  0.00000000E+00  0.00000000E+00  0.00000000E+00
  0.00000000E+00  0.00000000E+00  0.00000000E+00
  0.00000000E+00  0.00000000E+00  0.00000000E+00
  0.00000000E+00  0.00000000E+00  0.00000000E+00
  0.00000000E+00  0.00000000E+00  0.00000000E+00
  0.00000000E+00  0.00000000E+00  0.00000000E+00
  0.00000000E+00  0.00000000E+00  0.00000000E+00
  0.00000000E+00  0.00000000E+00  0.00000000E+00
  0.00000000E+00  0.00000000E+00  0.00000000E+00
  0.00000000E+00  0.00000000E+00  0.00000000E+00
  0.00000000E+00  0.00000000E+00  0.00000000E+00
  0.00000000E+00  0.00000000E+00  0.00000000E+00
  0.00000000E+00  0.00000000E+00  0.00000000E+00
  0.00000000E+00  0.00000000E+00  0.00000000E+00
  0.00000000E+00  0.00000000E+00  0.00000000E+00
  0.00000000E+00  0.00000000E+00  0.00000000E+00
  0.00000000E+00  0.00000000E+00  0.00000000E+00
  0.00000000E+00  0.00000000E+00  0.00000000E+00
  0.00000000E+00  0.00000000E+00  0.00000000E+00
  0.00000000E+00  0.00000000E+00  0.00000000E+00
  0.00000000E+00  0.00000000E+00  0.00000000E+00
  0.00000000E+00  0.00000000E+00  0.00000000E+00
  0.00000000E+00  0.00000000E+00  0.00000000E+00
  0.00000000E+00  0.00000000E+00  0.00000000E+00
