MAPbI3                                  
   1.00000000000000     
     7.3729931775541298    0.0004753788969759    0.0031273289960419
    -0.0012420047157874    9.5315326115825947    0.3002460470733174
    -0.0070994345672411    0.4061153942545739   13.7626024805717151
   Pb   I    C    N    H 
     4    12     4     4    24
Direct
  0.2618301429335693  0.2436231722168854  0.2238325683300680
  0.2362677521846885  0.2437517333167881  0.7244418521494000
  0.7627664119646842  0.7450735126875601  0.7225410254517656
  0.7360387606570949  0.7454446481790984  0.2233834287857300
  0.1059892136680483  0.9275232091620297  0.2165208425156873
  0.9019336836414482  0.0525504618274421  0.7928382768341888
  0.3084911351857803  0.2506504236008043  0.9946296175141220
  0.1894270893663251  0.2507666653171557  0.4953939542831279
  0.4048871814049915  0.5505753002876982  0.2931959439566483
  0.6040995307812633  0.4296484269606670  0.7181438926316031
  0.5971970980101152  0.0545349133980814  0.2916271346797941
  0.8963310371446780  0.4318618174956201  0.2167025913942167
  0.0959043493223542  0.5523622489982272  0.7926801163708922
  0.3930473497174020  0.9277984027051430  0.7158357359032076
  0.6978030120715879  0.7511641277288112  0.9941597991781957
  0.8035427347413555  0.7499349594118121  0.4930343036741420
  0.2190084169251443  0.6789083937893600  0.0286541625116191
  0.7883462794855672  0.1812983833959665  0.0299041644871517
  0.7092472905150775  0.1792489488536847  0.5290049920165457
  0.2814525717004548  0.6791911206090179  0.5284449779419084
  0.2201854995758726  0.8227459056400013  0.9767260946175500
  0.7879916029240033  0.3245905377428057  0.9771188372008358
  0.7120211611307313  0.3234491031824232  0.4775036531602588
  0.2823327745021818  0.8227658208296684  0.4760778938118385
  0.2886339697680170  0.6858237003335300  0.0980245043487627
  0.2884590460697578  0.6062148734592193  0.9832363602495587
  0.0781128185824935  0.6474736858711183  0.0403434253097980
  0.1429710579863852  0.8270305314051143  0.9140861460078511
  0.1706702397069866  0.8962222309141875  0.0223926977610167
  0.3519249134487956  0.8507398167358530  0.9578848299585112
  0.7230956665860863  0.1073293932692309  0.9838017817439566
  0.9289830759995988  0.1512296439452499  0.0441610619594117
  0.7144133778384107  0.1885363574620835  0.0979168812646223
  0.8715500640288770  0.3298622054307155  0.9168604339466576
  0.8307673577680875  0.3992034207306229  0.0238179279330613
  0.6577799808631813  0.3507093501004944  0.9543595553909551
  0.5680381560499981  0.1484766461048032  0.5402421504691420
  0.7785260441139856  0.1064769569182586  0.4835733737696645
  0.7785967676218341  0.1855022561022796  0.5985367287215220
  0.6655938998117586  0.3970994403990822  0.5239260155057162
  0.8437910244134956  0.3500893898307402  0.4577988367837083
  0.6330270599203555  0.3295699504631323  0.4154770618661806
  0.2139761115202769  0.6061775949108539  0.4824780435881296
  0.4219177308715329  0.6477596507178021  0.5418719906884139
  0.2091195397981186  0.6866668239536282  0.5969489808624671
  0.3628765361069953  0.8268127382059104  0.4146750199013337
  0.3293554385702774  0.8964275547466931  0.5223572361960219
  0.1516800430003547  0.8507995506525574  0.4551810963731157
 
  0.00000000E+00  0.00000000E+00  0.00000000E+00
  0.00000000E+00  0.00000000E+00  0.00000000E+00
  0.00000000E+00  0.00000000E+00  0.00000000E+00
  0.00000000E+00  0.00000000E+00  0.00000000E+00
  0.00000000E+00  0.00000000E+00  0.00000000E+00
  0.00000000E+00  0.00000000E+00  0.00000000E+00
  0.00000000E+00  0.00000000E+00  0.00000000E+00
  0.00000000E+00  0.00000000E+00  0.00000000E+00
  0.00000000E+00  0.00000000E+00  0.00000000E+00
  0.00000000E+00  0.00000000E+00  0.00000000E+00
  0.00000000E+00  0.00000000E+00  0.00000000E+00
  0.00000000E+00  0.00000000E+00  0.00000000E+00
  0.00000000E+00  0.00000000E+00  0.00000000E+00
  0.00000000E+00  0.00000000E+00  0.00000000E+00
  0.00000000E+00  0.00000000E+00  0.00000000E+00
  0.00000000E+00  0.00000000E+00  0.00000000E+00
  0.00000000E+00  0.00000000E+00  0.00000000E+00
  0.00000000E+00  0.00000000E+00  0.00000000E+00
  0.00000000E+00  0.00000000E+00  0.00000000E+00
  0.00000000E+00  0.00000000E+00  0.00000000E+00
  0.00000000E+00  0.00000000E+00  0.00000000E+00
  0.00000000E+00  0.00000000E+00  0.00000000E+00
  0.00000000E+00  0.00000000E+00  0.00000000E+00
  0.00000000E+00  0.00000000E+00  0.00000000E+00
  0.00000000E+00  0.00000000E+00  0.00000000E+00
  0.00000000E+00  0.00000000E+00  0.00000000E+00
  0.00000000E+00  0.00000000E+00  0.00000000E+00
  0.00000000E+00  0.00000000E+00  0.00000000E+00
  0.00000000E+00  0.00000000E+00  0.00000000E+00
  0.00000000E+00  0.00000000E+00  0.00000000E+00
  0.00000000E+00  0.00000000E+00  0.00000000E+00
  0.00000000E+00  0.00000000E+00  0.00000000E+00
  0.00000000E+00  0.00000000E+00  0.00000000E+00
  0.00000000E+00  0.00000000E+00  0.00000000E+00
  0.00000000E+00  0.00000000E+00  0.00000000E+00
  0.00000000E+00  0.00000000E+00  0.00000000E+00
  0.00000000E+00  0.00000000E+00  0.00000000E+00
  0.00000000E+00  0.00000000E+00  0.00000000E+00
  0.00000000E+00  0.00000000E+00  0.00000000E+00
  0.00000000E+00  0.00000000E+00  0.00000000E+00
  0.00000000E+00  0.00000000E+00  0.00000000E+00
  0.00000000E+00  0.00000000E+00  0.00000000E+00
  0.00000000E+00  0.00000000E+00  0.00000000E+00
  0.00000000E+00  0.00000000E+00  0.00000000E+00
  0.00000000E+00  0.00000000E+00  0.00000000E+00
  0.00000000E+00  0.00000000E+00  0.00000000E+00
  0.00000000E+00  0.00000000E+00  0.00000000E+00
  0.00000000E+00  0.00000000E+00  0.00000000E+00
