MAPbI3                                  
   1.00000000000000     
     8.5266281787051845   -0.0044349864014614    0.0488285795288580
    -0.0046269097151460    9.0908219194730844   -0.0806846304267243
     0.0727637324739352   -0.1203744826568628   13.1423550509732383
   Pb   I    C    N    H 
     4    12     4     4    24
Direct
  0.2470061118480149  0.2285347812142979  0.2546958776122932
  0.2482725222083309  0.2344526704488332  0.7572636285235790
  0.7566715589262780  0.7300615529159258  0.2549703947643058
  0.7423657233335990  0.7344954047925540  0.7570668656472642
  0.0866065475587496  0.9009778748162376  0.2489832763062126
  0.9317665703789989  0.0378326687963454  0.7709084270657084
  0.2384391380087745  0.2220565862340184  0.0102026765580515
  0.2525064137394120  0.2164497733639618  0.5101996613101393
  0.4369854975545505  0.5340787782136119  0.2721090855997984
  0.5672044960100563  0.4174269521860827  0.7571419384895260
  0.5720707984455834  0.0361718023738283  0.2698438088029302
  0.9259764182318099  0.4069493415625958  0.2561641542950542
  0.0601150231640583  0.5402013708966334  0.7673045980987115
  0.4237595306563421  0.9187188989852030  0.7630207350058085
  0.7508128110211454  0.7196119846435322  0.0094642944294543
  0.7480590120773790  0.7246659369028399  0.5102152427428326
  0.2762938315845740  0.6829259453757386  0.0145527942917135
  0.7150758650728871  0.2142824941136019  0.0155496757646175
  0.7732769518142318  0.2123358692533801  0.5229968914105587
  0.2297059012885189  0.7132370160645692  0.5236166609057074
  0.1764342662076917  0.8064512269080498  0.9765438773388797
  0.8274207502250588  0.3206907873131565  0.9670281193048219
  0.6680075628816172  0.3212527918467715  0.4722836104816792
  0.3358673239992413  0.8193235311011560  0.4692538311766251
  0.3778757410771773  0.7308627277287288  0.0526090325825461
  0.3130886400551804  0.6147936482329946  0.9492726842440902
  0.2065380119147392  0.6188788447366448  0.0681143408933250
  0.0726828913485292  0.7669646258539453  0.9466831441170316
  0.1480047623392293  0.8790718404567111  0.0353769583878158
  0.2352150676734506  0.8631937779900377  0.9198040955548572
  0.7420457240873495  0.1037361752790584  0.9863150172933257
  0.7303574277174756  0.2208099505481464  0.0978081297961495
  0.5959054867109879  0.2454025529969572  0.9953026365697422
  0.9430512154143084  0.2956786719487499  0.9839392351364252
  0.8059785349082629  0.4281301756045716  0.9913504088368683
  0.8165082070919836  0.3180465048069820  0.8887991331570386
  0.7417911861803094  0.2093288971286218  0.6036104233696682
  0.7561087992911129  0.1046721191689652  0.4863889010659437
  0.8946161762567062  0.2485974027391954  0.5131374612663316
  0.6836225930229558  0.4267774890472272  0.5016392671643060
  0.6927230656122809  0.3253481509075373  0.3951075006582296
  0.5505604288522530  0.2936655435861638  0.4815908650323388
  0.2564456155207468  0.6020345981580671  0.4955037845610413
  0.2514427812046299  0.7234234744437348  0.6050612423421733
  0.1082865526198129  0.7415587572217026  0.5069835348954881
  0.4532136431498403  0.7968700391887642  0.4827887830201270
  0.3142659111187409  0.9273293915536776  0.4922692927251847
  0.3189729105950859  0.8133346003498163  0.3915120014036707
 
  0.00000000E+00  0.00000000E+00  0.00000000E+00
  0.00000000E+00  0.00000000E+00  0.00000000E+00
  0.00000000E+00  0.00000000E+00  0.00000000E+00
  0.00000000E+00  0.00000000E+00  0.00000000E+00
  0.00000000E+00  0.00000000E+00  0.00000000E+00
  0.00000000E+00  0.00000000E+00  0.00000000E+00
  0.00000000E+00  0.00000000E+00  0.00000000E+00
  0.00000000E+00  0.00000000E+00  0.00000000E+00
  0.00000000E+00  0.00000000E+00  0.00000000E+00
  0.00000000E+00  0.00000000E+00  0.00000000E+00
  0.00000000E+00  0.00000000E+00  0.00000000E+00
  0.00000000E+00  0.00000000E+00  0.00000000E+00
  0.00000000E+00  0.00000000E+00  0.00000000E+00
  0.00000000E+00  0.00000000E+00  0.00000000E+00
  0.00000000E+00  0.00000000E+00  0.00000000E+00
  0.00000000E+00  0.00000000E+00  0.00000000E+00
  0.00000000E+00  0.00000000E+00  0.00000000E+00
  0.00000000E+00  0.00000000E+00  0.00000000E+00
  0.00000000E+00  0.00000000E+00  0.00000000E+00
  0.00000000E+00  0.00000000E+00  0.00000000E+00
  0.00000000E+00  0.00000000E+00  0.00000000E+00
  0.00000000E+00  0.00000000E+00  0.00000000E+00
  0.00000000E+00  0.00000000E+00  0.00000000E+00
  0.00000000E+00  0.00000000E+00  0.00000000E+00
  0.00000000E+00  0.00000000E+00  0.00000000E+00
  0.00000000E+00  0.00000000E+00  0.00000000E+00
  0.00000000E+00  0.00000000E+00  0.00000000E+00
  0.00000000E+00  0.00000000E+00  0.00000000E+00
  0.00000000E+00  0.00000000E+00  0.00000000E+00
  0.00000000E+00  0.00000000E+00  0.00000000E+00
  0.00000000E+00  0.00000000E+00  0.00000000E+00
  0.00000000E+00  0.00000000E+00  0.00000000E+00
  0.00000000E+00  0.00000000E+00  0.00000000E+00
  0.00000000E+00  0.00000000E+00  0.00000000E+00
  0.00000000E+00  0.00000000E+00  0.00000000E+00
  0.00000000E+00  0.00000000E+00  0.00000000E+00
  0.00000000E+00  0.00000000E+00  0.00000000E+00
  0.00000000E+00  0.00000000E+00  0.00000000E+00
  0.00000000E+00  0.00000000E+00  0.00000000E+00
  0.00000000E+00  0.00000000E+00  0.00000000E+00
  0.00000000E+00  0.00000000E+00  0.00000000E+00
  0.00000000E+00  0.00000000E+00  0.00000000E+00
  0.00000000E+00  0.00000000E+00  0.00000000E+00
  0.00000000E+00  0.00000000E+00  0.00000000E+00
  0.00000000E+00  0.00000000E+00  0.00000000E+00
  0.00000000E+00  0.00000000E+00  0.00000000E+00
  0.00000000E+00  0.00000000E+00  0.00000000E+00
  0.00000000E+00  0.00000000E+00  0.00000000E+00
