MAPbI3                                  
   1.00000000000000     
     6.4720896950998874   -0.0015296006930129    0.0072729896747667
    -0.0048808749523459   10.0338248179817509    0.7944562249678717
    -0.0014045457055400    1.0438156633537021   16.1191235825531258
   Pb   I    C    N    H 
     4    12     4     4    24
Direct
  0.2320434143302149  0.2517689104359680  0.2497667243694045
  0.2684710191793556  0.2519457585770138  0.7499256714165414
  0.7054639530103273  0.7495975251943294  0.2151003327061108
  0.7926593038505808  0.7508535177839242  0.7151442185182426
  0.1484727536763349  0.8947892661612208  0.2158115750567409
  0.8537888629155619  0.0999537570329866  0.8138997874047832
  0.3621095324750017  0.3175458528000836  0.0663609516016974
  0.1401839852097982  0.3181671029028103  0.5664300993760680
  0.3754284671778048  0.5077564785344661  0.3266286331245255
  0.6288525415299498  0.4838344466200600  0.6738173841772329
  0.6464610595219168  0.0998980395491396  0.3135669527850839
  0.8704773924656261  0.4824377064183032  0.1743473186787381
  0.1239059237881213  0.5076339258267292  0.8265580468507043
  0.3506622391785992  0.8962753848548178  0.7155993271400896
  0.6513617585440074  0.8322220253287721  0.0252955647479130
  0.8461531556174627  0.8339906227376147  0.5255977500112865
  0.1555605793270551  0.6885658406454545  0.0035268584957517
  0.8579151309535581  0.1644332268510443  0.0500495640776455
  0.6455700769209599  0.1665327369772208  0.5483115910453019
  0.3414354529166666  0.6910053933249323  0.5034678877164276
  0.1684705492333591  0.8110106991158837  0.9378964189997312
  0.8607313456472716  0.2919405953392942  0.9893036102143513
  0.6424946205457168  0.2946241712196959  0.4881527308257912
  0.3288712747317938  0.8142040223068575  0.4384409781476742
  0.1518744151436754  0.7225451908010854  0.0647015951911335
  0.2910046371491805  0.6263660296378019  0.9977249367484596
  0.0141733562269774  0.6347934106733397  0.9931274800882566
  0.1931925810735236  0.7866241128748305  0.8785267041297572
  0.0348682378375447  0.8678512257183322  0.9365025355529041
  0.2932840676763488  0.8690662043724858  0.9511163244638372
  0.7188954065108426  0.1087888714535373  0.0390315076227786
  0.9962011555065340  0.1069307619165147  0.0399316131528339
  0.8560487662353699  0.1901977560906916  0.1134649110821524
  0.8517965927426978  0.2709894023774100  0.9283739882258756
  0.9968761074619616  0.3441379233926800  0.9950543820514981
  0.7364981779752012  0.3514746133877780  0.0006091154019792
  0.5070026226753114  0.1092221544745536  0.5382159845151154
  0.7842413997503133  0.1111181285075851  0.5366789371489175
  0.6480399367656015  0.1913997535151437  0.6119314393940389
  0.5067017968031517  0.3467822665168839  0.4945019625533936
  0.7672182776013560  0.3538382432517384  0.4994226229251860
  0.6504179942733453  0.2743802037595180  0.4270649079088397
  0.2055742137471012  0.6291264752690050  0.4975474688215326
  0.4824122233611953  0.6371754781913331  0.4926375803862829
  0.3454886647426277  0.7240860865691209  0.5648923688350485
  0.3032751855893256  0.7908990551047669  0.3788777657295038
  0.4628666371957851  0.8707848250528166  0.4370765105629312
  0.2045051532078919  0.8721308205523460  0.4523353800199701
 
  0.00000000E+00  0.00000000E+00  0.00000000E+00
  0.00000000E+00  0.00000000E+00  0.00000000E+00
  0.00000000E+00  0.00000000E+00  0.00000000E+00
  0.00000000E+00  0.00000000E+00  0.00000000E+00
  0.00000000E+00  0.00000000E+00  0.00000000E+00
  0.00000000E+00  0.00000000E+00  0.00000000E+00
  0.00000000E+00  0.00000000E+00  0.00000000E+00
  0.00000000E+00  0.00000000E+00  0.00000000E+00
  0.00000000E+00  0.00000000E+00  0.00000000E+00
  0.00000000E+00  0.00000000E+00  0.00000000E+00
  0.00000000E+00  0.00000000E+00  0.00000000E+00
  0.00000000E+00  0.00000000E+00  0.00000000E+00
  0.00000000E+00  0.00000000E+00  0.00000000E+00
  0.00000000E+00  0.00000000E+00  0.00000000E+00
  0.00000000E+00  0.00000000E+00  0.00000000E+00
  0.00000000E+00  0.00000000E+00  0.00000000E+00
  0.00000000E+00  0.00000000E+00  0.00000000E+00
  0.00000000E+00  0.00000000E+00  0.00000000E+00
  0.00000000E+00  0.00000000E+00  0.00000000E+00
  0.00000000E+00  0.00000000E+00  0.00000000E+00
  0.00000000E+00  0.00000000E+00  0.00000000E+00
  0.00000000E+00  0.00000000E+00  0.00000000E+00
  0.00000000E+00  0.00000000E+00  0.00000000E+00
  0.00000000E+00  0.00000000E+00  0.00000000E+00
  0.00000000E+00  0.00000000E+00  0.00000000E+00
  0.00000000E+00  0.00000000E+00  0.00000000E+00
  0.00000000E+00  0.00000000E+00  0.00000000E+00
  0.00000000E+00  0.00000000E+00  0.00000000E+00
  0.00000000E+00  0.00000000E+00  0.00000000E+00
  0.00000000E+00  0.00000000E+00  0.00000000E+00
  0.00000000E+00  0.00000000E+00  0.00000000E+00
  0.00000000E+00  0.00000000E+00  0.00000000E+00
  0.00000000E+00  0.00000000E+00  0.00000000E+00
  0.00000000E+00  0.00000000E+00  0.00000000E+00
  0.00000000E+00  0.00000000E+00  0.00000000E+00
  0.00000000E+00  0.00000000E+00  0.00000000E+00
  0.00000000E+00  0.00000000E+00  0.00000000E+00
  0.00000000E+00  0.00000000E+00  0.00000000E+00
  0.00000000E+00  0.00000000E+00  0.00000000E+00
  0.00000000E+00  0.00000000E+00  0.00000000E+00
  0.00000000E+00  0.00000000E+00  0.00000000E+00
  0.00000000E+00  0.00000000E+00  0.00000000E+00
  0.00000000E+00  0.00000000E+00  0.00000000E+00
  0.00000000E+00  0.00000000E+00  0.00000000E+00
  0.00000000E+00  0.00000000E+00  0.00000000E+00
  0.00000000E+00  0.00000000E+00  0.00000000E+00
  0.00000000E+00  0.00000000E+00  0.00000000E+00
  0.00000000E+00  0.00000000E+00  0.00000000E+00
