MAPbI3                                  
   1.00000000000000     
     9.0090250524844180    0.0018035279504869    0.0322768416146917
     0.0017899863033319    8.8117541751643635   -0.0986488912710630
     0.0480557347563429   -0.1437229232349098   13.0480958748128657
   Pb   I    C    N    H 
     4    12     4     4    24
Direct
  0.2436943814607584  0.2309134789987177  0.2541697300631916
  0.2510638302079272  0.2354291638181732  0.7566550081581198
  0.7578426883802711  0.7322642344030236  0.2547635040613209
  0.7429133882912745  0.7357671874190737  0.7574931352785098
  0.0789889953277564  0.8982453485364239  0.2495124083581699
  0.9436448084869573  0.0381485439458890  0.7674280520610059
  0.2350819918833999  0.2265666483471082  0.0094687104148751
  0.2562010535400797  0.2222466444827061  0.5094873054229985
  0.4486833885166335  0.5330406409736985  0.2686868447971306
  0.5616608097873318  0.4169216754410499  0.7585717022026701
  0.5561731840789128  0.0351749218891364  0.2677063881622810
  0.9286375713822398  0.4037764615869422  0.2593594701119972
  0.0499188865963217  0.5402176402247940  0.7679946063544157
  0.4313269599112063  0.9176972698696970  0.7650778196913902
  0.7537413126515763  0.7240791939141302  0.0094299102541750
  0.7433237551555137  0.7286259630530590  0.5100194748958556
  0.2837424848640357  0.6884929501018837  0.0153612018360057
  0.7142060201366135  0.2151979871200157  0.0158584534213279
  0.7708405274445328  0.2152537001421002  0.5245173684333059
  0.2280952734032219  0.7146696593030146  0.5249573281369618
  0.1772660905248778  0.8037564345477078  0.9742087120978431
  0.8285436597730825  0.3161802738327898  0.9672872143001008
  0.6636944150435284  0.3184478496269489  0.4714366573891582
  0.3369068156667129  0.8145454141622074  0.4697166885726030
  0.3727156035610805  0.7492820372105250  0.0551231008670462
  0.3280184384343294  0.6212108352162343  0.9507677971865983
  0.2232713309055286  0.6167899498673716  0.0685137572353282
  0.0912937258710358  0.7509759246666310  0.9353235881496138
  0.1330743993660184  0.8701982063245077  0.0332372719572633
  0.2308966609106525  0.8733089342407335  0.9228078635639017
  0.7358271551250921  0.0982072504212145  0.9904504133169363
  0.7240774591168907  0.2269445180274192  0.0989426701580032
  0.6044513139704412  0.2515737608050714  0.9910066289667195
  0.9353042297241094  0.2888210598178165  0.9896904453765751
  0.8101037162648415  0.4296909725576802  0.9867179301989686
  0.8254622742202899  0.3056920273525533  0.8883529147771893
  0.7460200608403279  0.2196591662362337  0.6064413379008524
  0.7565284229391220  0.1002606848528939  0.4930876816725870
  0.8834523953780115  0.2557482638105281  0.5096186254854111
  0.6776707982575761  0.4307754089117868  0.4950730301415152
  0.6800347804865171  0.3137015141535849  0.3929329798184468
  0.5542571418989699  0.2887530293852281  0.4858103140660489
  0.2494956039334234  0.5968051272832524  0.5014932678269879
  0.2440778102962396  0.7311145207856254  0.6072432146096484
  0.1159044282705630  0.7480174497494279  0.5033140510871278
  0.4457158066926132  0.7899312908871287  0.4888427072044045
  0.3181267021156083  0.9285966772675384  0.4871880962002093
  0.3280294489060102  0.7999781044287130  0.3912006177572301
 
  0.00000000E+00  0.00000000E+00  0.00000000E+00
  0.00000000E+00  0.00000000E+00  0.00000000E+00
  0.00000000E+00  0.00000000E+00  0.00000000E+00
  0.00000000E+00  0.00000000E+00  0.00000000E+00
  0.00000000E+00  0.00000000E+00  0.00000000E+00
  0.00000000E+00  0.00000000E+00  0.00000000E+00
  0.00000000E+00  0.00000000E+00  0.00000000E+00
  0.00000000E+00  0.00000000E+00  0.00000000E+00
  0.00000000E+00  0.00000000E+00  0.00000000E+00
  0.00000000E+00  0.00000000E+00  0.00000000E+00
  0.00000000E+00  0.00000000E+00  0.00000000E+00
  0.00000000E+00  0.00000000E+00  0.00000000E+00
  0.00000000E+00  0.00000000E+00  0.00000000E+00
  0.00000000E+00  0.00000000E+00  0.00000000E+00
  0.00000000E+00  0.00000000E+00  0.00000000E+00
  0.00000000E+00  0.00000000E+00  0.00000000E+00
  0.00000000E+00  0.00000000E+00  0.00000000E+00
  0.00000000E+00  0.00000000E+00  0.00000000E+00
  0.00000000E+00  0.00000000E+00  0.00000000E+00
  0.00000000E+00  0.00000000E+00  0.00000000E+00
  0.00000000E+00  0.00000000E+00  0.00000000E+00
  0.00000000E+00  0.00000000E+00  0.00000000E+00
  0.00000000E+00  0.00000000E+00  0.00000000E+00
  0.00000000E+00  0.00000000E+00  0.00000000E+00
  0.00000000E+00  0.00000000E+00  0.00000000E+00
  0.00000000E+00  0.00000000E+00  0.00000000E+00
  0.00000000E+00  0.00000000E+00  0.00000000E+00
  0.00000000E+00  0.00000000E+00  0.00000000E+00
  0.00000000E+00  0.00000000E+00  0.00000000E+00
  0.00000000E+00  0.00000000E+00  0.00000000E+00
  0.00000000E+00  0.00000000E+00  0.00000000E+00
  0.00000000E+00  0.00000000E+00  0.00000000E+00
  0.00000000E+00  0.00000000E+00  0.00000000E+00
  0.00000000E+00  0.00000000E+00  0.00000000E+00
  0.00000000E+00  0.00000000E+00  0.00000000E+00
  0.00000000E+00  0.00000000E+00  0.00000000E+00
  0.00000000E+00  0.00000000E+00  0.00000000E+00
  0.00000000E+00  0.00000000E+00  0.00000000E+00
  0.00000000E+00  0.00000000E+00  0.00000000E+00
  0.00000000E+00  0.00000000E+00  0.00000000E+00
  0.00000000E+00  0.00000000E+00  0.00000000E+00
  0.00000000E+00  0.00000000E+00  0.00000000E+00
  0.00000000E+00  0.00000000E+00  0.00000000E+00
  0.00000000E+00  0.00000000E+00  0.00000000E+00
  0.00000000E+00  0.00000000E+00  0.00000000E+00
  0.00000000E+00  0.00000000E+00  0.00000000E+00
  0.00000000E+00  0.00000000E+00  0.00000000E+00
  0.00000000E+00  0.00000000E+00  0.00000000E+00
