MAPbI3                                  
   1.00000000000000     
     8.4839588820512546   -0.0032927985094528    0.0497024592254943
    -0.0033956433828644    9.1182487044219087   -0.0807116528332517
     0.0740689372462757   -0.1207156853082827   13.1482854874764250
   Pb   I    C    N    H 
     4    12     4     4    24
Direct
  0.2471276050430675  0.2287282195152951  0.2544724933829299
  0.2484799808185396  0.2341311075778476  0.7571044595290070
  0.7566896673873378  0.7300880140545887  0.2548476931454996
  0.7425162040224026  0.7343040424041408  0.7570238321403574
  0.0872837836488521  0.9015073750714367  0.2485913345279029
  0.9313517079418056  0.0373686159116120  0.7711028107300826
  0.2385391969395656  0.2218308490993902  0.0101670148913591
  0.2524219505196282  0.2162928734930288  0.5102164125311739
  0.4362027421901101  0.5338290147460493  0.2725204438807691
  0.5684193200986520  0.4171470135060061  0.7563978650441602
  0.5726892800399542  0.0365943042378228  0.2698634292458432
  0.9252989234001193  0.4077279045487445  0.2557608562417798
  0.0610162763380616  0.5394826764568308  0.7674054586490144
  0.4234889265764745  0.9188014276777019  0.7631261067413442
  0.7510879180830868  0.7194818348603047  0.0094139709877759
  0.7481607806761129  0.7241931553930705  0.5102726088074266
  0.2763558268508803  0.6829733068513650  0.0146365398319121
  0.7150261395032949  0.2143807186302828  0.0156029187423357
  0.7730516492563656  0.2122663204028462  0.5229725078330928
  0.2296424045461443  0.7132468333475886  0.5236974440510469
  0.1765970238693514  0.8063997704991755  0.9765146560962081
  0.8273541667666138  0.3208310609616895  0.9670686734935302
  0.6678895900765132  0.3212821393967082  0.4722820420285151
  0.3356356470899647  0.8194468499808496  0.4692749067104087
  0.3786372073479519  0.7305042398844761  0.0525488916650763
  0.3129873442687780  0.6146602882712421  0.9494972141831057
  0.2060630109951534  0.6195760777886031  0.0683494583335217
  0.0719565572165144  0.7673480431608395  0.9470540672780275
  0.1485743582771556  0.8792520805203849  0.0351694402744516
  0.2356468077493456  0.8624346384606089  0.9195176383415998
  0.7424769371671393  0.1042644309503919  0.9863491601119653
  0.7304263953998678  0.2208404702943603  0.0978114378322477
  0.5951757744280205  0.2451127643331554  0.9954853378874112
  0.9436492547349837  0.2960291815841899  0.9838164350107103
  0.8056838556320087  0.4278527810753274  0.9914994514949814
  0.8161704053957332  0.3183801610268719  0.8888906198643588
  0.7411082124449885  0.2090800526197793  0.6035020616459670
  0.7558106724411126  0.1050539609001425  0.4862292579753510
  0.8950869838670870  0.2482131455025286  0.5134137332234230
  0.6836023868855819  0.4263604107909862  0.5018193492085300
  0.6930838652816579  0.3255767010611936  0.3951841564355202
  0.5497767910089272  0.2939503760243644  0.4814033370056811
  0.2566575146146902  0.6025101258444198  0.4954011594607816
  0.2518579933475658  0.7231833758301763  0.6050586529865241
  0.1074840853083436  0.7412877562506016  0.5074198620509522
  0.4536808687069837  0.7971597401383940  0.4825309725775989
  0.3138281112351125  0.9270106571975150  0.4924648967692424
  0.3182498945624429  0.8137191118649993  0.3915949291194926
 
  0.00000000E+00  0.00000000E+00  0.00000000E+00
  0.00000000E+00  0.00000000E+00  0.00000000E+00
  0.00000000E+00  0.00000000E+00  0.00000000E+00
  0.00000000E+00  0.00000000E+00  0.00000000E+00
  0.00000000E+00  0.00000000E+00  0.00000000E+00
  0.00000000E+00  0.00000000E+00  0.00000000E+00
  0.00000000E+00  0.00000000E+00  0.00000000E+00
  0.00000000E+00  0.00000000E+00  0.00000000E+00
  0.00000000E+00  0.00000000E+00  0.00000000E+00
  0.00000000E+00  0.00000000E+00  0.00000000E+00
  0.00000000E+00  0.00000000E+00  0.00000000E+00
  0.00000000E+00  0.00000000E+00  0.00000000E+00
  0.00000000E+00  0.00000000E+00  0.00000000E+00
  0.00000000E+00  0.00000000E+00  0.00000000E+00
  0.00000000E+00  0.00000000E+00  0.00000000E+00
  0.00000000E+00  0.00000000E+00  0.00000000E+00
  0.00000000E+00  0.00000000E+00  0.00000000E+00
  0.00000000E+00  0.00000000E+00  0.00000000E+00
  0.00000000E+00  0.00000000E+00  0.00000000E+00
  0.00000000E+00  0.00000000E+00  0.00000000E+00
  0.00000000E+00  0.00000000E+00  0.00000000E+00
  0.00000000E+00  0.00000000E+00  0.00000000E+00
  0.00000000E+00  0.00000000E+00  0.00000000E+00
  0.00000000E+00  0.00000000E+00  0.00000000E+00
  0.00000000E+00  0.00000000E+00  0.00000000E+00
  0.00000000E+00  0.00000000E+00  0.00000000E+00
  0.00000000E+00  0.00000000E+00  0.00000000E+00
  0.00000000E+00  0.00000000E+00  0.00000000E+00
  0.00000000E+00  0.00000000E+00  0.00000000E+00
  0.00000000E+00  0.00000000E+00  0.00000000E+00
  0.00000000E+00  0.00000000E+00  0.00000000E+00
  0.00000000E+00  0.00000000E+00  0.00000000E+00
  0.00000000E+00  0.00000000E+00  0.00000000E+00
  0.00000000E+00  0.00000000E+00  0.00000000E+00
  0.00000000E+00  0.00000000E+00  0.00000000E+00
  0.00000000E+00  0.00000000E+00  0.00000000E+00
  0.00000000E+00  0.00000000E+00  0.00000000E+00
  0.00000000E+00  0.00000000E+00  0.00000000E+00
  0.00000000E+00  0.00000000E+00  0.00000000E+00
  0.00000000E+00  0.00000000E+00  0.00000000E+00
  0.00000000E+00  0.00000000E+00  0.00000000E+00
  0.00000000E+00  0.00000000E+00  0.00000000E+00
  0.00000000E+00  0.00000000E+00  0.00000000E+00
  0.00000000E+00  0.00000000E+00  0.00000000E+00
  0.00000000E+00  0.00000000E+00  0.00000000E+00
  0.00000000E+00  0.00000000E+00  0.00000000E+00
  0.00000000E+00  0.00000000E+00  0.00000000E+00
  0.00000000E+00  0.00000000E+00  0.00000000E+00
