MAPbI3                                  
   1.00000000000000     
     6.6696978644279898    0.0011762136463803    0.0047945491289190
    -0.0011069727323206    9.9196220119475775    0.6584770487378820
    -0.0062716209704447    0.8627275698840497   15.4865968442831861
   Pb   I    C    N    H 
     4    12     4     4    24
Direct
  0.2399970521337372  0.2475932862657953  0.2462013590146815
  0.2599044342381199  0.2476977944689716  0.7461250424194202
  0.7197351678091218  0.7515772697016416  0.2196209244813365
  0.7804051294341415  0.7515621320251300  0.7196616720476935
  0.1494354572957659  0.9015245711620489  0.2168222430515381
  0.8570619982431341  0.0941551795594715  0.8064954984571461
  0.3543262125632162  0.3052236476505238  0.0542829299330670
  0.1448843129452253  0.3079054262316181  0.5542981688106012
  0.3837676469841349  0.5191067557665628  0.3189648839003618
  0.6256834740779709  0.4746119145769789  0.6788162833369569
  0.6431857181026635  0.0942442120697301  0.3065448931859596
  0.8744646870452547  0.4744258766006505  0.1786704320294069
  0.1161155533608362  0.5188730998063334  0.8194361597516868
  0.3508081303167542  0.9015338954679469  0.7166601656755497
  0.6699410420838799  0.8218395459082689  0.0215184625869666
  0.8309736094194061  0.8217816403936868  0.5216247892719177
  0.1790752746802126  0.6856674800643289  0.0113957113290126
  0.8459042113266344  0.1671276188342227  0.0430757696702598
  0.6517183305936286  0.1679369419051851  0.5421422598432684
  0.3222890827693675  0.6858419132338235  0.5102484123394548
  0.1812395213372816  0.8140697973971439  0.9486088399858946
  0.8512437436411290  0.2984471525899622  0.9840297857676500
  0.6481075080121238  0.2996355497431017  0.4834929305536514
  0.3201990557035467  0.8155525404086652  0.4486972049206140
  0.1829021844883761  0.7140615240633460  0.0771546074310135
  0.3101381807514645  0.6255631039589840  0.9990394015916318
  0.0415554689839418  0.6311274108831100  0.0008828122305136
  0.2014626074718617  0.7947876595884158  0.8850149733304210
  0.0476691080217004  0.8663789447308228  0.9518951122918063
  0.3001450216916097  0.8743386580019630  0.9632108408425371
  0.7142061243759601  0.1106592704932195  0.0270727073695797
  0.9827784297921308  0.1112331923312671  0.0327207429203192
  0.8368739503241459  0.1895694499871126  0.1101503585474329
  0.8443722901289827  0.2801237641844860  0.9197019033209822
  0.9833742874841739  0.3500843357945936  0.9922641828560499
  0.7307963926131047  0.3583585496222577  0.9969650684369711
  0.5145701863164029  0.1126597435098366  0.5313437907625796
  0.7832328718933548  0.1111055373220946  0.5262403691873723
  0.6602658542541866  0.1898248561307962  0.6093510754532909
  0.5163554630678916  0.3517073309061994  0.4916805438533455
  0.7689999730928861  0.3588472557376167  0.4968591503496174
  0.6553796135901712  0.2818197243604795  0.4190772477072418
  0.1910351028743289  0.6262909176664330  0.4974432946865834
  0.4596994485755401  0.6315588117473243  0.4991242326953956
  0.3187874305304311  0.7126186587393936  0.5764014953777261
  0.2994160835651652  0.7981022131514591  0.3847822971880821
  0.4539687672509450  0.8675170543304813  0.4523616073021303
  0.2015508047439027  0.8754227909264057  0.4641753619033162
 
  0.00000000E+00  0.00000000E+00  0.00000000E+00
  0.00000000E+00  0.00000000E+00  0.00000000E+00
  0.00000000E+00  0.00000000E+00  0.00000000E+00
  0.00000000E+00  0.00000000E+00  0.00000000E+00
  0.00000000E+00  0.00000000E+00  0.00000000E+00
  0.00000000E+00  0.00000000E+00  0.00000000E+00
  0.00000000E+00  0.00000000E+00  0.00000000E+00
  0.00000000E+00  0.00000000E+00  0.00000000E+00
  0.00000000E+00  0.00000000E+00  0.00000000E+00
  0.00000000E+00  0.00000000E+00  0.00000000E+00
  0.00000000E+00  0.00000000E+00  0.00000000E+00
  0.00000000E+00  0.00000000E+00  0.00000000E+00
  0.00000000E+00  0.00000000E+00  0.00000000E+00
  0.00000000E+00  0.00000000E+00  0.00000000E+00
  0.00000000E+00  0.00000000E+00  0.00000000E+00
  0.00000000E+00  0.00000000E+00  0.00000000E+00
  0.00000000E+00  0.00000000E+00  0.00000000E+00
  0.00000000E+00  0.00000000E+00  0.00000000E+00
  0.00000000E+00  0.00000000E+00  0.00000000E+00
  0.00000000E+00  0.00000000E+00  0.00000000E+00
  0.00000000E+00  0.00000000E+00  0.00000000E+00
  0.00000000E+00  0.00000000E+00  0.00000000E+00
  0.00000000E+00  0.00000000E+00  0.00000000E+00
  0.00000000E+00  0.00000000E+00  0.00000000E+00
  0.00000000E+00  0.00000000E+00  0.00000000E+00
  0.00000000E+00  0.00000000E+00  0.00000000E+00
  0.00000000E+00  0.00000000E+00  0.00000000E+00
  0.00000000E+00  0.00000000E+00  0.00000000E+00
  0.00000000E+00  0.00000000E+00  0.00000000E+00
  0.00000000E+00  0.00000000E+00  0.00000000E+00
  0.00000000E+00  0.00000000E+00  0.00000000E+00
  0.00000000E+00  0.00000000E+00  0.00000000E+00
  0.00000000E+00  0.00000000E+00  0.00000000E+00
  0.00000000E+00  0.00000000E+00  0.00000000E+00
  0.00000000E+00  0.00000000E+00  0.00000000E+00
  0.00000000E+00  0.00000000E+00  0.00000000E+00
  0.00000000E+00  0.00000000E+00  0.00000000E+00
  0.00000000E+00  0.00000000E+00  0.00000000E+00
  0.00000000E+00  0.00000000E+00  0.00000000E+00
  0.00000000E+00  0.00000000E+00  0.00000000E+00
  0.00000000E+00  0.00000000E+00  0.00000000E+00
  0.00000000E+00  0.00000000E+00  0.00000000E+00
  0.00000000E+00  0.00000000E+00  0.00000000E+00
  0.00000000E+00  0.00000000E+00  0.00000000E+00
  0.00000000E+00  0.00000000E+00  0.00000000E+00
  0.00000000E+00  0.00000000E+00  0.00000000E+00
  0.00000000E+00  0.00000000E+00  0.00000000E+00
  0.00000000E+00  0.00000000E+00  0.00000000E+00
