MAPbI3                                  
   1.00000000000000     
    10.7811834191610600    0.2199507275886780   -0.0760775391185771
     0.1802646057898669    8.3335704598965386   -0.1881336507030767
    -0.1000661967897896   -0.2793862312536665   12.3884937697362556
   Pb   I    C    N    H 
     4    12     4     4    24
Direct
  0.2907981217680694  0.2448223622871306  0.2638372123968669
  0.3085526460814391  0.2410613140506969  0.7460154775013572
  0.8130566263002273  0.7403694889976401  0.2460186231965368
  0.7914474157897455  0.7444224599063388  0.7633010116840359
  0.0640885584918544  0.9084189019858115  0.2309091333448449
  0.9599730571591053  0.0310996546189211  0.7885169045207137
  0.2901083456790727  0.2248058486232643  0.0043915428249674
  0.1839731990561380  0.2238202023319645  0.5077668122354076
  0.4608995310471336  0.5310548421365887  0.2880247766510060
  0.5563933731531765  0.4156393726472386  0.7272387782730663
  0.5219956914243006  0.0170622329413662  0.2969249311161427
  0.9404929091486146  0.4039303864529019  0.2346862881175675
  0.0216845079226822  0.5166186029984579  0.8014358141194814
  0.4448351201736503  0.9095901967038779  0.7344075848090484
  0.6881851684986631  0.7242232033240718  0.0068976352907828
  0.7954428629933397  0.7205839826979209  0.5032610096363362
  0.3111963312099530  0.7226505739188058  0.0107844041899735
  0.6815872952527960  0.2214088852650355  0.0193709898242830
  0.8055847343221821  0.2158028494775970  0.5121176032373013
  0.1913305749532336  0.7168272091540973  0.5233607628552228
  0.1940487374426957  0.8053318274509981  0.9695722671518462
  0.7932897699818027  0.3018889302924462  0.9793625774105367
  0.6922281231447296  0.3040640810818742  0.4685341250432625
  0.2984233407999182  0.8032898285223015  0.4800962295248845
  0.3567561143442127  0.8051848653687786  0.0681883604076316
  0.3716035584074159  0.6922043455061548  0.9422689259197843
  0.2860722151263611  0.6144234477705942  0.0502647253283278
  0.1469580301010805  0.7325674019154677  0.9136911613789475
  0.1348541547557406  0.8350097569549024  0.0335741494464782
  0.2127631904510260  0.9117325591626586  0.9348016809841687
  0.7121389006022950  0.1068712187594499  0.0524092322828211
  0.6376312410917364  0.3003044682707529  0.0818457153439282
  0.6172975147214611  0.2017062505394269  0.9515206032470587
  0.8563679289730171  0.3221086422765982  0.0424568052328120
  0.7682312988832137  0.4136099972371189  0.9509466687344539
  0.8382356997696702  0.2328860552043598  0.9185391233586229
  0.8520902410772354  0.2958501223612751  0.5705550850971733
  0.7758968846989215  0.1091726618101506  0.5509552308094869
  0.8672427758371152  0.1821174092139768  0.4449744821328891
  0.7154428698900558  0.4089734708968022  0.4340122874636888
  0.6445836353424094  0.2335445746365603  0.4116909233620175
  0.6319489205352908  0.3371785287853826  0.5311758803726806
  0.2268576210216706  0.6032034813023661  0.5546504629251793
  0.1480217674575860  0.7928144461683202  0.5876680117161766
  0.1247543189845863  0.6948185253307900  0.4575152489775745
  0.3631774850191319  0.8263190498869266  0.5414071094074800
  0.2687542790494117  0.9138854563295722  0.4524682585256636
  0.3427053120647832  0.7364220264442395  0.4179353725895235
 
  0.00000000E+00  0.00000000E+00  0.00000000E+00
  0.00000000E+00  0.00000000E+00  0.00000000E+00
  0.00000000E+00  0.00000000E+00  0.00000000E+00
  0.00000000E+00  0.00000000E+00  0.00000000E+00
  0.00000000E+00  0.00000000E+00  0.00000000E+00
  0.00000000E+00  0.00000000E+00  0.00000000E+00
  0.00000000E+00  0.00000000E+00  0.00000000E+00
  0.00000000E+00  0.00000000E+00  0.00000000E+00
  0.00000000E+00  0.00000000E+00  0.00000000E+00
  0.00000000E+00  0.00000000E+00  0.00000000E+00
  0.00000000E+00  0.00000000E+00  0.00000000E+00
  0.00000000E+00  0.00000000E+00  0.00000000E+00
  0.00000000E+00  0.00000000E+00  0.00000000E+00
  0.00000000E+00  0.00000000E+00  0.00000000E+00
  0.00000000E+00  0.00000000E+00  0.00000000E+00
  0.00000000E+00  0.00000000E+00  0.00000000E+00
  0.00000000E+00  0.00000000E+00  0.00000000E+00
  0.00000000E+00  0.00000000E+00  0.00000000E+00
  0.00000000E+00  0.00000000E+00  0.00000000E+00
  0.00000000E+00  0.00000000E+00  0.00000000E+00
  0.00000000E+00  0.00000000E+00  0.00000000E+00
  0.00000000E+00  0.00000000E+00  0.00000000E+00
  0.00000000E+00  0.00000000E+00  0.00000000E+00
  0.00000000E+00  0.00000000E+00  0.00000000E+00
  0.00000000E+00  0.00000000E+00  0.00000000E+00
  0.00000000E+00  0.00000000E+00  0.00000000E+00
  0.00000000E+00  0.00000000E+00  0.00000000E+00
  0.00000000E+00  0.00000000E+00  0.00000000E+00
  0.00000000E+00  0.00000000E+00  0.00000000E+00
  0.00000000E+00  0.00000000E+00  0.00000000E+00
  0.00000000E+00  0.00000000E+00  0.00000000E+00
  0.00000000E+00  0.00000000E+00  0.00000000E+00
  0.00000000E+00  0.00000000E+00  0.00000000E+00
  0.00000000E+00  0.00000000E+00  0.00000000E+00
  0.00000000E+00  0.00000000E+00  0.00000000E+00
  0.00000000E+00  0.00000000E+00  0.00000000E+00
  0.00000000E+00  0.00000000E+00  0.00000000E+00
  0.00000000E+00  0.00000000E+00  0.00000000E+00
  0.00000000E+00  0.00000000E+00  0.00000000E+00
  0.00000000E+00  0.00000000E+00  0.00000000E+00
  0.00000000E+00  0.00000000E+00  0.00000000E+00
  0.00000000E+00  0.00000000E+00  0.00000000E+00
  0.00000000E+00  0.00000000E+00  0.00000000E+00
  0.00000000E+00  0.00000000E+00  0.00000000E+00
  0.00000000E+00  0.00000000E+00  0.00000000E+00
  0.00000000E+00  0.00000000E+00  0.00000000E+00
  0.00000000E+00  0.00000000E+00  0.00000000E+00
  0.00000000E+00  0.00000000E+00  0.00000000E+00
