MAPbI3                                  
   1.00000000000000     
    10.0538418577254749    0.0609030287832357   -0.0253257774287385
     0.0519139634588335    8.3702396280646987   -0.2175970390847738
    -0.0317713711728225   -0.3158552803482620   12.7667751457398122
   Pb   I    C    N    H 
     4    12     4     4    24
Direct
  0.2699659608554293  0.2412136107250964  0.2565306452804466
  0.2803027099523250  0.2340294743804021  0.7507483324312731
  0.7845350292025357  0.7283285005285999  0.2515687431809422
  0.7696423595091857  0.7448186766835688  0.7564643768114772
  0.0609843492270593  0.9011302059926780  0.2403976324292413
  0.9620886686770627  0.0360412840500949  0.7752948783996934
  0.2656424238693569  0.2264496967814911  0.0043487780492422
  0.2107038323180678  0.2218436335911904  0.5044475078745663
  0.4612909532263968  0.5342189572974834  0.2753249078444238
  0.5531139980592303  0.4148928273667518  0.7396613027861534
  0.5295924017039104  0.0263741451064181  0.2785905718783468
  0.9355066679962495  0.3983876221557095  0.2444020351023735
  0.0293687867582342  0.5281983273294744  0.7790232195484387
  0.4422096458936524  0.9096432134778855  0.7421751788938791
  0.7136816011542514  0.7244792151618015  0.0052560515947048
  0.7749562541005730  0.7241549536594791  0.5044908231639977
  0.3075668565868986  0.7237331721344763  0.0110382525999804
  0.6924947600914744  0.2236556906460188  0.0134396556950405
  0.7967204128576283  0.2213008920763241  0.5148993995761330
  0.1998268766378989  0.7191537366298580  0.5159675089076052
  0.1784691485879046  0.7997394918751669  0.9775039895287632
  0.8198176634198413  0.3000323642720943  0.9809308610548295
  0.6715519943192489  0.3026721441991285  0.4782441459778219
  0.3227951799485123  0.8016342402552215  0.4803622991334941
  0.3553760486905769  0.8047142631753733  0.0691141929487098
  0.3707127589795949  0.7048636407554241  0.9420761997865115
  0.2853078274922053  0.6101215668541516  0.0450407078206122
  0.1306629932112995  0.7294350305076871  0.9195670349405479
  0.1157459604919171  0.8171382604219330  0.0416089070881652
  0.1943941977584231  0.9116505001873952  0.9494370228829422
  0.7167708973218736  0.1073327658604238  0.0440702725104012
  0.6454653378527153  0.3018434604679857  0.0739961705311027
  0.6277922687317733  0.2099078384063430  0.9446349367392914
  0.8840241898167199  0.3136068332043453  0.0446587802810613
  0.8016123514559494  0.4136773490297629  0.9554708613104395
  0.8670060526140332  0.2322669109536559  0.9211592717347138
  0.8437015323424681  0.2993442493452746  0.5750989035469254
  0.7695803213760133  0.1079343577846139  0.5471394167512621
  0.8628304753098140  0.2012141880731646  0.4478048920081029
  0.6920711800044673  0.4138402683419969  0.4508171013676213
  0.6244072648863792  0.2343476229107402  0.4190145633260565
  0.6065868329857752  0.3225472009035674  0.5406668391664834
  0.2293458219955616  0.6036735163657004  0.5453880986058991
  0.1530595190360478  0.7945102334739288  0.5780976227196655
  0.1325141130550224  0.7029392384288481  0.4489480275475561
  0.3890633106493846  0.8183000655240434  0.5424847733459720
  0.2995647325980882  0.9144254998229048  0.4554707887602394
  0.3695774763910267  0.7359350628243641  0.4194715165369247
 
  0.00000000E+00  0.00000000E+00  0.00000000E+00
  0.00000000E+00  0.00000000E+00  0.00000000E+00
  0.00000000E+00  0.00000000E+00  0.00000000E+00
  0.00000000E+00  0.00000000E+00  0.00000000E+00
  0.00000000E+00  0.00000000E+00  0.00000000E+00
  0.00000000E+00  0.00000000E+00  0.00000000E+00
  0.00000000E+00  0.00000000E+00  0.00000000E+00
  0.00000000E+00  0.00000000E+00  0.00000000E+00
  0.00000000E+00  0.00000000E+00  0.00000000E+00
  0.00000000E+00  0.00000000E+00  0.00000000E+00
  0.00000000E+00  0.00000000E+00  0.00000000E+00
  0.00000000E+00  0.00000000E+00  0.00000000E+00
  0.00000000E+00  0.00000000E+00  0.00000000E+00
  0.00000000E+00  0.00000000E+00  0.00000000E+00
  0.00000000E+00  0.00000000E+00  0.00000000E+00
  0.00000000E+00  0.00000000E+00  0.00000000E+00
  0.00000000E+00  0.00000000E+00  0.00000000E+00
  0.00000000E+00  0.00000000E+00  0.00000000E+00
  0.00000000E+00  0.00000000E+00  0.00000000E+00
  0.00000000E+00  0.00000000E+00  0.00000000E+00
  0.00000000E+00  0.00000000E+00  0.00000000E+00
  0.00000000E+00  0.00000000E+00  0.00000000E+00
  0.00000000E+00  0.00000000E+00  0.00000000E+00
  0.00000000E+00  0.00000000E+00  0.00000000E+00
  0.00000000E+00  0.00000000E+00  0.00000000E+00
  0.00000000E+00  0.00000000E+00  0.00000000E+00
  0.00000000E+00  0.00000000E+00  0.00000000E+00
  0.00000000E+00  0.00000000E+00  0.00000000E+00
  0.00000000E+00  0.00000000E+00  0.00000000E+00
  0.00000000E+00  0.00000000E+00  0.00000000E+00
  0.00000000E+00  0.00000000E+00  0.00000000E+00
  0.00000000E+00  0.00000000E+00  0.00000000E+00
  0.00000000E+00  0.00000000E+00  0.00000000E+00
  0.00000000E+00  0.00000000E+00  0.00000000E+00
  0.00000000E+00  0.00000000E+00  0.00000000E+00
  0.00000000E+00  0.00000000E+00  0.00000000E+00
  0.00000000E+00  0.00000000E+00  0.00000000E+00
  0.00000000E+00  0.00000000E+00  0.00000000E+00
  0.00000000E+00  0.00000000E+00  0.00000000E+00
  0.00000000E+00  0.00000000E+00  0.00000000E+00
  0.00000000E+00  0.00000000E+00  0.00000000E+00
  0.00000000E+00  0.00000000E+00  0.00000000E+00
  0.00000000E+00  0.00000000E+00  0.00000000E+00
  0.00000000E+00  0.00000000E+00  0.00000000E+00
  0.00000000E+00  0.00000000E+00  0.00000000E+00
  0.00000000E+00  0.00000000E+00  0.00000000E+00
  0.00000000E+00  0.00000000E+00  0.00000000E+00
  0.00000000E+00  0.00000000E+00  0.00000000E+00
