MAPbI3                                  
   1.00000000000000     
     6.8733363639451444    0.0031018050809645    0.0118930682821619
     0.0024102759852983    9.8953171548293124    0.5458266369693529
     0.0100465002326330    0.7538710958489866   14.4368727304758924
   Pb   I    C    N    H 
     4    12     4     4    24
Direct
  0.2464080369817649  0.2493175816978279  0.2405620111955035
  0.2519417200059623  0.2465977813365623  0.7394722830035401
  0.7356971282953021  0.7536224892148091  0.2294575883985890
  0.7656371873718848  0.7514636358339442  0.7274237152029889
  0.1408769622378251  0.9249725283295386  0.2132580002012784
  0.8660019014867523  0.0834512450395160  0.7951044105257888
  0.3291632929909910  0.2948191943470855  0.0300360224268289
  0.1712900658141698  0.2933658225502758  0.5292363634431211
  0.3790914778362047  0.5498166575939522  0.3060481307192514
  0.6295979436376028  0.4566224186106378  0.6945564841655693
  0.6306918186911247  0.0831141317820754  0.2959588026113318
  0.8687847178734434  0.4569993910033344  0.1953578395048647
  0.1199492200416809  0.5494166541561172  0.8052022227558975
  0.3578788153661390  0.9235779362624921  0.7135742687960139
  0.6888367778863611  0.8054118848779961  0.0155346821390433
  0.8109577104902995  0.8051817444878926  0.5132749509400614
  0.2046612959851275  0.6746437122782034  0.0260920946665263
  0.8193342269440679  0.1756776899250680  0.0314026094106052
  0.6820268211563837  0.1746007706733432  0.5316874196148672
  0.2953554636295181  0.6752628443281559  0.5271288942456082
  0.1957324020998910  0.8095594746275411  0.9670286484621576
  0.8226537027523334  0.3093315373797543  0.9710977634350036
  0.6784822927987378  0.3084166389038621  0.4715748318279760
  0.3036105908290571  0.8093138093055199  0.4670271361896939
  0.2231866294256373  0.6938521796936377  0.0984472862766953
  0.3270407636488494  0.6171823849818198  0.0028109690477075
  0.0684119789892288  0.6216864696273622  0.0172506130691624
  0.2037124101397836  0.7970720746210850  0.8969186915799829
  0.0660146567311079  0.8583638468692053  0.9785797369050712
  0.3121698482846474  0.8694036394628596  0.9820710115416043
  0.6963007445717612  0.1168606507680111  0.0107132887842440
  0.9556854828369876  0.1232918601210697  0.0207994199111471
  0.8037914554606280  0.1959862398139193  0.1037347861172592
  0.8176411379876661  0.2932414653744330  0.9014878803090706
  0.9490484306130106  0.3621077240835125  0.9815327840047705
  0.7035147228568128  0.3671383906996534  0.9857602751976167
  0.5456234729716758  0.1223731734331756  0.5214186444633476
  0.8049089879897774  0.1157485213987520  0.5104666771583503
  0.6979262104454154  0.1945784045336535  0.6040227695908478
  0.5522521649748925  0.3613171397523705  0.4825567611184227
  0.7977588010062052  0.3660492054757081  0.4858941704473924
  0.6829258072571546  0.2924898765130594  0.4019103814302079
  0.1735274559572643  0.6169696961607396  0.5044800203668236
  0.4319984171691859  0.6224235935869280  0.5185043860514272
  0.2763832120325570  0.6956108459616080  0.5992634250755692
  0.2959037100873065  0.7953611850532657  0.3971529378170789
  0.4329244519469082  0.8587623042378552  0.4778123506557141
  0.1866894734128281  0.8692675532307033  0.4816615591984675
 
  0.00000000E+00  0.00000000E+00  0.00000000E+00
  0.00000000E+00  0.00000000E+00  0.00000000E+00
  0.00000000E+00  0.00000000E+00  0.00000000E+00
  0.00000000E+00  0.00000000E+00  0.00000000E+00
  0.00000000E+00  0.00000000E+00  0.00000000E+00
  0.00000000E+00  0.00000000E+00  0.00000000E+00
  0.00000000E+00  0.00000000E+00  0.00000000E+00
  0.00000000E+00  0.00000000E+00  0.00000000E+00
  0.00000000E+00  0.00000000E+00  0.00000000E+00
  0.00000000E+00  0.00000000E+00  0.00000000E+00
  0.00000000E+00  0.00000000E+00  0.00000000E+00
  0.00000000E+00  0.00000000E+00  0.00000000E+00
  0.00000000E+00  0.00000000E+00  0.00000000E+00
  0.00000000E+00  0.00000000E+00  0.00000000E+00
  0.00000000E+00  0.00000000E+00  0.00000000E+00
  0.00000000E+00  0.00000000E+00  0.00000000E+00
  0.00000000E+00  0.00000000E+00  0.00000000E+00
  0.00000000E+00  0.00000000E+00  0.00000000E+00
  0.00000000E+00  0.00000000E+00  0.00000000E+00
  0.00000000E+00  0.00000000E+00  0.00000000E+00
  0.00000000E+00  0.00000000E+00  0.00000000E+00
  0.00000000E+00  0.00000000E+00  0.00000000E+00
  0.00000000E+00  0.00000000E+00  0.00000000E+00
  0.00000000E+00  0.00000000E+00  0.00000000E+00
  0.00000000E+00  0.00000000E+00  0.00000000E+00
  0.00000000E+00  0.00000000E+00  0.00000000E+00
  0.00000000E+00  0.00000000E+00  0.00000000E+00
  0.00000000E+00  0.00000000E+00  0.00000000E+00
  0.00000000E+00  0.00000000E+00  0.00000000E+00
  0.00000000E+00  0.00000000E+00  0.00000000E+00
  0.00000000E+00  0.00000000E+00  0.00000000E+00
  0.00000000E+00  0.00000000E+00  0.00000000E+00
  0.00000000E+00  0.00000000E+00  0.00000000E+00
  0.00000000E+00  0.00000000E+00  0.00000000E+00
  0.00000000E+00  0.00000000E+00  0.00000000E+00
  0.00000000E+00  0.00000000E+00  0.00000000E+00
  0.00000000E+00  0.00000000E+00  0.00000000E+00
  0.00000000E+00  0.00000000E+00  0.00000000E+00
  0.00000000E+00  0.00000000E+00  0.00000000E+00
  0.00000000E+00  0.00000000E+00  0.00000000E+00
  0.00000000E+00  0.00000000E+00  0.00000000E+00
  0.00000000E+00  0.00000000E+00  0.00000000E+00
  0.00000000E+00  0.00000000E+00  0.00000000E+00
  0.00000000E+00  0.00000000E+00  0.00000000E+00
  0.00000000E+00  0.00000000E+00  0.00000000E+00
  0.00000000E+00  0.00000000E+00  0.00000000E+00
  0.00000000E+00  0.00000000E+00  0.00000000E+00
  0.00000000E+00  0.00000000E+00  0.00000000E+00
