MAPbI3                                  
   1.00000000000000     
     6.6031741805009618   -0.0058905442597641    0.0093195448174377
    -0.0112489760508503    9.9535532226103793    0.6872305510206934
     0.0033770084011466    0.8967910901537894   15.6937605955517974
   Pb   I    C    N    H 
     4    12     4     4    24
Direct
  0.2375585424294575  0.2480799009054931  0.2474731963210353
  0.2613674261302791  0.2488389934482461  0.7466757598749562
  0.7173580863079407  0.7505544085394800  0.2184719443627325
  0.7825083417007263  0.7505894856177553  0.7185379919441730
  0.1516128952207956  0.8987500899167007  0.2167961526175102
  0.8564090013346983  0.0948272333210192  0.8088400600079781
  0.3550550475463188  0.3096811675070471  0.0585001834294188
  0.1434098091684683  0.3080785269644934  0.5578404113809037
  0.3816496519197919  0.5153522372246522  0.3218041922802791
  0.6275122858509105  0.4761222791427067  0.6768940960785499
  0.6436772937574627  0.0953133020883510  0.3087184587661596
  0.8740544606407151  0.4760023421083183  0.1777061188697015
  0.1188497644416986  0.5147542149057907  0.8218449300510784
  0.3496822690852575  0.8985447401721293  0.7162550695389881
  0.6690415397478646  0.8242525319256591  0.0229851178152997
  0.8320611917911805  0.8255053733486922  0.5233647516468498
  0.1770352412373878  0.6864791954749278  0.0090208392436336
  0.8471503320758168  0.1674016130948511  0.0439135314555340
  0.6503368498582784  0.1685181752089408  0.5428190716219484
  0.3230631651446288  0.6862956398065935  0.5091514451421284
  0.1808853744205683  0.8136562648414500  0.9460460830588970
  0.8527505072248485  0.2979110013239065  0.9850701065393247
  0.6470245850426281  0.2993644301234848  0.4843028946596665
  0.3211417112010736  0.8142523152900298  0.4468686156546480
  0.1791997405474970  0.7158431892725352  0.0735979223101270
  0.3097100814210828  0.6263726358029286  0.9979257477221343
  0.0383873171323068  0.6318093575705569  0.9986530523060536
  0.2017438985141996  0.7938084640613812  0.8835064750576759
  0.0467738539005569  0.8666270727103860  0.9487637106359195
  0.3015325743046227  0.8734914617758167  0.9602300989237155
  0.7134015365657659  0.1111873999892031  0.0289140978941329
  0.9846990340232508  0.1112248307746560  0.0336002999957987
  0.8393525349857681  0.1901370202146697  0.1100003151149794
  0.8461260324969587  0.2793757423102949  0.9216990495936698
  0.9862309278365197  0.3495423012251466  0.9930352663094330
  0.7310806535519515  0.3575257048648202  0.9976224700873787
  0.5123885920346528  0.1127699120779726  0.5321558303049587
  0.7837467556484183  0.1121588493497130  0.5278361482868482
  0.6575130843235603  0.1907376594594715  0.6090276279318921
  0.5138672039988592  0.3511587862115984  0.4920646764416066
  0.7689945158391477  0.3586611486503456  0.4972932264680578
  0.6548011878433831  0.2812321725672385  0.4208780378540717
  0.1900665141255229  0.6265773915583077  0.4975591338847161
  0.4613619078273266  0.6315976181582531  0.4985913832188718
  0.3203030669469364  0.7146192184560423  0.5739739338811169
  0.3002459079156249  0.7953074966337910  0.3841740215436936
  0.4560342106628296  0.8666334418454341  0.4498539971090027
  0.2012454942743986  0.8741716621586439  0.4614904547627907
 
  0.00000000E+00  0.00000000E+00  0.00000000E+00
  0.00000000E+00  0.00000000E+00  0.00000000E+00
  0.00000000E+00  0.00000000E+00  0.00000000E+00
  0.00000000E+00  0.00000000E+00  0.00000000E+00
  0.00000000E+00  0.00000000E+00  0.00000000E+00
  0.00000000E+00  0.00000000E+00  0.00000000E+00
  0.00000000E+00  0.00000000E+00  0.00000000E+00
  0.00000000E+00  0.00000000E+00  0.00000000E+00
  0.00000000E+00  0.00000000E+00  0.00000000E+00
  0.00000000E+00  0.00000000E+00  0.00000000E+00
  0.00000000E+00  0.00000000E+00  0.00000000E+00
  0.00000000E+00  0.00000000E+00  0.00000000E+00
  0.00000000E+00  0.00000000E+00  0.00000000E+00
  0.00000000E+00  0.00000000E+00  0.00000000E+00
  0.00000000E+00  0.00000000E+00  0.00000000E+00
  0.00000000E+00  0.00000000E+00  0.00000000E+00
  0.00000000E+00  0.00000000E+00  0.00000000E+00
  0.00000000E+00  0.00000000E+00  0.00000000E+00
  0.00000000E+00  0.00000000E+00  0.00000000E+00
  0.00000000E+00  0.00000000E+00  0.00000000E+00
  0.00000000E+00  0.00000000E+00  0.00000000E+00
  0.00000000E+00  0.00000000E+00  0.00000000E+00
  0.00000000E+00  0.00000000E+00  0.00000000E+00
  0.00000000E+00  0.00000000E+00  0.00000000E+00
  0.00000000E+00  0.00000000E+00  0.00000000E+00
  0.00000000E+00  0.00000000E+00  0.00000000E+00
  0.00000000E+00  0.00000000E+00  0.00000000E+00
  0.00000000E+00  0.00000000E+00  0.00000000E+00
  0.00000000E+00  0.00000000E+00  0.00000000E+00
  0.00000000E+00  0.00000000E+00  0.00000000E+00
  0.00000000E+00  0.00000000E+00  0.00000000E+00
  0.00000000E+00  0.00000000E+00  0.00000000E+00
  0.00000000E+00  0.00000000E+00  0.00000000E+00
  0.00000000E+00  0.00000000E+00  0.00000000E+00
  0.00000000E+00  0.00000000E+00  0.00000000E+00
  0.00000000E+00  0.00000000E+00  0.00000000E+00
  0.00000000E+00  0.00000000E+00  0.00000000E+00
  0.00000000E+00  0.00000000E+00  0.00000000E+00
  0.00000000E+00  0.00000000E+00  0.00000000E+00
  0.00000000E+00  0.00000000E+00  0.00000000E+00
  0.00000000E+00  0.00000000E+00  0.00000000E+00
  0.00000000E+00  0.00000000E+00  0.00000000E+00
  0.00000000E+00  0.00000000E+00  0.00000000E+00
  0.00000000E+00  0.00000000E+00  0.00000000E+00
  0.00000000E+00  0.00000000E+00  0.00000000E+00
  0.00000000E+00  0.00000000E+00  0.00000000E+00
  0.00000000E+00  0.00000000E+00  0.00000000E+00
  0.00000000E+00  0.00000000E+00  0.00000000E+00
