MAPbI3                                  
   1.00000000000000     
     8.5694222456867681   -0.0038684793737011    0.0409942165916181
    -0.0039451255222875    9.0632113700785979   -0.0832483668864363
     0.0607455593608684   -0.1238208969647186   13.1289832552923027
   Pb   I    C    N    H 
     4    12     4     4    24
Direct
  0.2463365866549171  0.2287873839969463  0.2547707475054873
  0.2490885610472069  0.2354804398116735  0.7572286220548807
  0.7567804793872583  0.7302069568025350  0.2547692691509257
  0.7429333292913172  0.7353796678200506  0.7571702889272529
  0.0859179737384679  0.9001810176888373  0.2494026760752015
  0.9335209516222426  0.0381564069319999  0.7706136664373516
  0.2384941042058919  0.2236243643316687  0.0104869036278227
  0.2527708073405702  0.2168853805717251  0.5104163913239396
  0.4374693324757333  0.5339639929454298  0.2715860245259705
  0.5667340028549466  0.4179505163243182  0.7569951605758020
  0.5695855079944848  0.0358870865376685  0.2708322810457482
  0.9256026854927567  0.4065622218243123  0.2574222256874332
  0.0581972748456804  0.5396781496305896  0.7675620164298284
  0.4250131966613661  0.9191869252549486  0.7645881937994656
  0.7517156352621712  0.7197627400439445  0.0093411816632699
  0.7479273531659527  0.7258773402383017  0.5100642426440536
  0.2777889246513715  0.6830579369193560  0.0133446587434785
  0.7144701101787257  0.2143027233227025  0.0157779948927109
  0.7733029297083173  0.2128169562925979  0.5229268963662280
  0.2292893075692174  0.7134532222332542  0.5238113980401348
  0.1764961136953383  0.8063185077123320  0.9764444859154371
  0.8274161946024122  0.3197972591721159  0.9671881891444030
  0.6672301345872009  0.3209942783298303  0.4720865552735162
  0.3361523538755400  0.8185709917980727  0.4694424158486802
  0.3784809316077200  0.7317738528657105  0.0516885563333841
  0.3150933522374558  0.6164307329951370  0.9473432404270093
  0.2097001052988085  0.6168671344606269  0.0663656746344175
  0.0744981662210818  0.7656969299015967  0.9453470476575910
  0.1462126410456297  0.8771132976711989  0.0361044124144049
  0.2344625024104565  0.8656297332294780  0.9207534220259082
  0.7402443839620726  0.1030082768829499  0.9868017369586116
  0.7295754502039803  0.2211497563684547  0.0981691291270398
  0.5962915864115852  0.2466385449627601  0.9952103114374008
  0.9421752270578461  0.2941764389702935  0.9846703675407833
  0.8066348624868922  0.4279572903166809  0.9909469287638799
  0.8171887174163905  0.3163301860595698  0.8888264627225470
  0.7430245597111964  0.2106277678817148  0.6037627435521182
  0.7564121015932842  0.1043649756889989  0.4869030885585167
  0.8936383613700674  0.2497897415462595  0.5123064237920663
  0.6827789826481263  0.4273179767304006  0.5007024124201146
  0.6905303849794249  0.3240498180771377  0.3946680289376855
  0.5506450910710375  0.2930213989060185  0.4822214485158345
  0.2553208773713326  0.6013949619582105  0.4964366079893703
  0.2501349021878264  0.7245010318406830  0.6054377411228191
  0.1088892479657653  0.7424946763110249  0.5063671709975198
  0.4526107983001884  0.7957546598751501  0.4838594128735066
  0.3148416810024954  0.9272776050567728  0.4916370586441653
  0.3203832345303013  0.8114467449078994  0.3915460868542452
 
  0.00000000E+00  0.00000000E+00  0.00000000E+00
  0.00000000E+00  0.00000000E+00  0.00000000E+00
  0.00000000E+00  0.00000000E+00  0.00000000E+00
  0.00000000E+00  0.00000000E+00  0.00000000E+00
  0.00000000E+00  0.00000000E+00  0.00000000E+00
  0.00000000E+00  0.00000000E+00  0.00000000E+00
  0.00000000E+00  0.00000000E+00  0.00000000E+00
  0.00000000E+00  0.00000000E+00  0.00000000E+00
  0.00000000E+00  0.00000000E+00  0.00000000E+00
  0.00000000E+00  0.00000000E+00  0.00000000E+00
  0.00000000E+00  0.00000000E+00  0.00000000E+00
  0.00000000E+00  0.00000000E+00  0.00000000E+00
  0.00000000E+00  0.00000000E+00  0.00000000E+00
  0.00000000E+00  0.00000000E+00  0.00000000E+00
  0.00000000E+00  0.00000000E+00  0.00000000E+00
  0.00000000E+00  0.00000000E+00  0.00000000E+00
  0.00000000E+00  0.00000000E+00  0.00000000E+00
  0.00000000E+00  0.00000000E+00  0.00000000E+00
  0.00000000E+00  0.00000000E+00  0.00000000E+00
  0.00000000E+00  0.00000000E+00  0.00000000E+00
  0.00000000E+00  0.00000000E+00  0.00000000E+00
  0.00000000E+00  0.00000000E+00  0.00000000E+00
  0.00000000E+00  0.00000000E+00  0.00000000E+00
  0.00000000E+00  0.00000000E+00  0.00000000E+00
  0.00000000E+00  0.00000000E+00  0.00000000E+00
  0.00000000E+00  0.00000000E+00  0.00000000E+00
  0.00000000E+00  0.00000000E+00  0.00000000E+00
  0.00000000E+00  0.00000000E+00  0.00000000E+00
  0.00000000E+00  0.00000000E+00  0.00000000E+00
  0.00000000E+00  0.00000000E+00  0.00000000E+00
  0.00000000E+00  0.00000000E+00  0.00000000E+00
  0.00000000E+00  0.00000000E+00  0.00000000E+00
  0.00000000E+00  0.00000000E+00  0.00000000E+00
  0.00000000E+00  0.00000000E+00  0.00000000E+00
  0.00000000E+00  0.00000000E+00  0.00000000E+00
  0.00000000E+00  0.00000000E+00  0.00000000E+00
  0.00000000E+00  0.00000000E+00  0.00000000E+00
  0.00000000E+00  0.00000000E+00  0.00000000E+00
  0.00000000E+00  0.00000000E+00  0.00000000E+00
  0.00000000E+00  0.00000000E+00  0.00000000E+00
  0.00000000E+00  0.00000000E+00  0.00000000E+00
  0.00000000E+00  0.00000000E+00  0.00000000E+00
  0.00000000E+00  0.00000000E+00  0.00000000E+00
  0.00000000E+00  0.00000000E+00  0.00000000E+00
  0.00000000E+00  0.00000000E+00  0.00000000E+00
  0.00000000E+00  0.00000000E+00  0.00000000E+00
  0.00000000E+00  0.00000000E+00  0.00000000E+00
  0.00000000E+00  0.00000000E+00  0.00000000E+00
