MAPbI3                                  
   1.00000000000000     
     6.8047746581847735    0.0017396525939657    0.0048688897207864
    -0.0001680297191755    9.9166866783778733    0.5699585753142846
    -0.0053985243128526    0.7763160741113386   14.6931571356323012
   Pb   I    C    N    H 
     4    12     4     4    24
Direct
  0.2405187469026952  0.2473329580635287  0.2433960575041763
  0.2586389380599956  0.2478049966698188  0.7427241598157349
  0.7301314746514205  0.7517323706154955  0.2266931407198179
  0.7697062819249821  0.7518080777506445  0.7266942197882295
  0.1434316551075399  0.9139105077244509  0.2160431940424767
  0.8652118771731611  0.0891278120312023  0.7964883678895901
  0.3309195097008933  0.2963028630556253  0.0380919626768605
  0.1709165368706856  0.2952022346915120  0.5370994499034920
  0.3793510475040021  0.5371214140592397  0.3103846651815034
  0.6306912565822147  0.4635148948406628  0.6881894918647138
  0.6336747236185846  0.0872207689516597  0.2969767813545571
  0.8683266691171102  0.4625129964393386  0.1884718973744097
  0.1204546061851013  0.5370745689725100  0.8103955953418042
  0.3551448077496500  0.9135632065674953  0.7166973657201156
  0.6848601100068770  0.8121280899761235  0.0167465987718572
  0.8133956060020091  0.8117101892802654  0.5167360507433737
  0.2004282826872315  0.6763540385851817  0.0229024285979608
  0.8204179276096334  0.1748921078133789  0.0327851441911154
  0.6811339911164003  0.1747783653232938  0.5328430171023429
  0.2986689122797027  0.6760603108214451  0.5227937591230080
  0.1921576037589588  0.8107781551225839  0.9642293121479928
  0.8251245508559680  0.3083351103892415  0.9735168663542181
  0.6772999903023689  0.3077741620459665  0.4731308549338973
  0.3060286092722668  0.8099670854017547  0.4635268102887692
  0.2143580358339821  0.6961620161184177  0.0941062297149270
  0.3263303926340805  0.6196787216658438  0.0018969915925072
  0.0642510553291353  0.6225794237404029  0.0127430281103246
  0.2058649342214791  0.7990073115335751  0.8954275166821772
  0.0591404562327089  0.8582658820872627  0.9735980889202566
  0.3072472208350588  0.8715652330758807  0.9807284646979828
  0.6949386842190142  0.1172373563662447  0.0126121667478693
  0.9571833513064318  0.1217151794059296  0.0221138776236499
  0.8059125679476372  0.1947765455789402  0.1039479578349792
  0.8211229351556094  0.2923660304320626  0.9050967459997749
  0.9530635485716116  0.3605722120673813  0.9841964897219063
  0.7051381622964935  0.3663707633210730  0.9877010594486528
  0.5442824638305167  0.1217100860613892  0.5222352125055297
  0.8065656105787463  0.1166105138465679  0.5130852432138689
  0.6952274159574551  0.1951982582361756  0.6039239077642951
  0.5498067202194360  0.3606063414220921  0.4836624382331864
  0.7977859215689627  0.3654550464400121  0.4870031515815773
  0.6809727737611341  0.2911988999024219  0.4048283429516243
  0.1730111607551283  0.6188537824966569  0.5021501394702194
  0.4350336539157192  0.6223690636153525  0.5127704917172867
  0.2846026612051389  0.6965629893068551  0.5938655387837704
  0.2935973770576710  0.7971636526376913  0.3948424558823350
  0.4381999090582806  0.8583598939153018  0.4729068451518056
  0.1897312724690523  0.8703035115339607  0.4793484242175229
 
  0.00000000E+00  0.00000000E+00  0.00000000E+00
  0.00000000E+00  0.00000000E+00  0.00000000E+00
  0.00000000E+00  0.00000000E+00  0.00000000E+00
  0.00000000E+00  0.00000000E+00  0.00000000E+00
  0.00000000E+00  0.00000000E+00  0.00000000E+00
  0.00000000E+00  0.00000000E+00  0.00000000E+00
  0.00000000E+00  0.00000000E+00  0.00000000E+00
  0.00000000E+00  0.00000000E+00  0.00000000E+00
  0.00000000E+00  0.00000000E+00  0.00000000E+00
  0.00000000E+00  0.00000000E+00  0.00000000E+00
  0.00000000E+00  0.00000000E+00  0.00000000E+00
  0.00000000E+00  0.00000000E+00  0.00000000E+00
  0.00000000E+00  0.00000000E+00  0.00000000E+00
  0.00000000E+00  0.00000000E+00  0.00000000E+00
  0.00000000E+00  0.00000000E+00  0.00000000E+00
  0.00000000E+00  0.00000000E+00  0.00000000E+00
  0.00000000E+00  0.00000000E+00  0.00000000E+00
  0.00000000E+00  0.00000000E+00  0.00000000E+00
  0.00000000E+00  0.00000000E+00  0.00000000E+00
  0.00000000E+00  0.00000000E+00  0.00000000E+00
  0.00000000E+00  0.00000000E+00  0.00000000E+00
  0.00000000E+00  0.00000000E+00  0.00000000E+00
  0.00000000E+00  0.00000000E+00  0.00000000E+00
  0.00000000E+00  0.00000000E+00  0.00000000E+00
  0.00000000E+00  0.00000000E+00  0.00000000E+00
  0.00000000E+00  0.00000000E+00  0.00000000E+00
  0.00000000E+00  0.00000000E+00  0.00000000E+00
  0.00000000E+00  0.00000000E+00  0.00000000E+00
  0.00000000E+00  0.00000000E+00  0.00000000E+00
  0.00000000E+00  0.00000000E+00  0.00000000E+00
  0.00000000E+00  0.00000000E+00  0.00000000E+00
  0.00000000E+00  0.00000000E+00  0.00000000E+00
  0.00000000E+00  0.00000000E+00  0.00000000E+00
  0.00000000E+00  0.00000000E+00  0.00000000E+00
  0.00000000E+00  0.00000000E+00  0.00000000E+00
  0.00000000E+00  0.00000000E+00  0.00000000E+00
  0.00000000E+00  0.00000000E+00  0.00000000E+00
  0.00000000E+00  0.00000000E+00  0.00000000E+00
  0.00000000E+00  0.00000000E+00  0.00000000E+00
  0.00000000E+00  0.00000000E+00  0.00000000E+00
  0.00000000E+00  0.00000000E+00  0.00000000E+00
  0.00000000E+00  0.00000000E+00  0.00000000E+00
  0.00000000E+00  0.00000000E+00  0.00000000E+00
  0.00000000E+00  0.00000000E+00  0.00000000E+00
  0.00000000E+00  0.00000000E+00  0.00000000E+00
  0.00000000E+00  0.00000000E+00  0.00000000E+00
  0.00000000E+00  0.00000000E+00  0.00000000E+00
  0.00000000E+00  0.00000000E+00  0.00000000E+00
