MAPbI3                                  
   1.00000000000000     
     7.2994598893073936    0.0005278286103241    0.0051877914427618
    -0.0010862414827948    9.5476110462293917    0.3190715685424888
    -0.0032647637577357    0.4314698085150306   13.8416518106676349
   Pb   I    C    N    H 
     4    12     4     4    24
Direct
  0.2635732173199613  0.2466219915458787  0.2224501389891894
  0.2352867056881289  0.2454963970981844  0.7234155964119305
  0.7362043628271205  0.7474536026338288  0.2223644748436592
  0.7636519286798471  0.7460200660747467  0.7225348173361115
  0.1094838193836187  0.9291171585907105  0.2148891453279786
  0.9003957051054627  0.0539081292673491  0.7935457991794985
  0.3066394300458459  0.2546462877329714  0.9945296508328048
  0.1910354307037802  0.2536775528207841  0.4958539082747919
  0.4020207198544544  0.5531511310149567  0.2941331423862493
  0.6077404603533284  0.4302988414968688  0.7160211410736413
  0.6002243239274727  0.0560755535254726  0.2926779180874019
  0.8936823629866281  0.4323349176121213  0.2150770342383065
  0.0991877961636664  0.5538499782659946  0.7935460784995430
  0.3913638096701115  0.9287916613037970  0.7145519810656645
  0.6974603232216300  0.7543241327703096  0.9943248578625000
  0.8035799852023213  0.7541377890757318  0.4943474911673460
  0.2179102929300999  0.6775803415178995  0.0285635677487695
  0.7876465130179668  0.1809514370645656  0.0293959808694775
  0.7099133416015931  0.1785674333162495  0.5290171766981037
  0.2827488632799802  0.6776148057041830  0.5290488471531332
  0.2188298009647265  0.8213620409510158  0.9767377694563438
  0.7872339483648092  0.3243529507256048  0.9770730235514105
  0.7119410865112049  0.3226517034094232  0.4776848076813578
  0.2829656971502743  0.8211686582039354  0.4768373218182463
  0.2868376684401751  0.6846863400353373  0.0978746319289400
  0.2896266047617828  0.6054483792102108  0.9839171205987732
  0.0757403863166388  0.6454566139182882  0.0395591509881150
  0.1418488021774788  0.8255046594565227  0.9141534262167111
  0.1677081757288214  0.8943846214590172  0.0219054761650456
  0.3521462063188035  0.8497262912278789  0.9586212539191725
  0.7191997663528386  0.1079291225657489  0.9841483971985763
  0.9296811126831226  0.1498645283861548  0.0422493538780854
  0.7154232257750797  0.1881381540412454  0.0977774364868420
  0.8696343418195519  0.3295312191549727  0.9163557918693519
  0.8327688729495089  0.3982754888642702  0.0231418910227606
  0.6550821248135937  0.3511353840567564  0.9558488718620129
  0.5675581794686630  0.1467510095116378  0.5395860732229268
  0.7816717401281184  0.1065766153095793  0.4842880114339769
  0.7785246650366157  0.1850136335138076  0.5984883774216021
  0.6629641796987560  0.3956653885349870  0.5234765049565814
  0.8452530184675746  0.3501721506926800  0.4589802868494673
  0.6335840361355269  0.3282875921063724  0.4155380348541059
  0.2126742428274542  0.6051423174212631  0.4840280952829958
  0.4247516741078720  0.6457969209961154  0.5412265580689272
  0.2118383298915468  0.6851168205282743  0.5977698999203392
  0.3625243708268314  0.8252015701351386  0.4151076169856869
  0.3319678201801987  0.8945038925723199  0.5224062430310986
  0.1502725301394797  0.8492327245787639  0.4572778252845143
 
  0.00000000E+00  0.00000000E+00  0.00000000E+00
  0.00000000E+00  0.00000000E+00  0.00000000E+00
  0.00000000E+00  0.00000000E+00  0.00000000E+00
  0.00000000E+00  0.00000000E+00  0.00000000E+00
  0.00000000E+00  0.00000000E+00  0.00000000E+00
  0.00000000E+00  0.00000000E+00  0.00000000E+00
  0.00000000E+00  0.00000000E+00  0.00000000E+00
  0.00000000E+00  0.00000000E+00  0.00000000E+00
  0.00000000E+00  0.00000000E+00  0.00000000E+00
  0.00000000E+00  0.00000000E+00  0.00000000E+00
  0.00000000E+00  0.00000000E+00  0.00000000E+00
  0.00000000E+00  0.00000000E+00  0.00000000E+00
  0.00000000E+00  0.00000000E+00  0.00000000E+00
  0.00000000E+00  0.00000000E+00  0.00000000E+00
  0.00000000E+00  0.00000000E+00  0.00000000E+00
  0.00000000E+00  0.00000000E+00  0.00000000E+00
  0.00000000E+00  0.00000000E+00  0.00000000E+00
  0.00000000E+00  0.00000000E+00  0.00000000E+00
  0.00000000E+00  0.00000000E+00  0.00000000E+00
  0.00000000E+00  0.00000000E+00  0.00000000E+00
  0.00000000E+00  0.00000000E+00  0.00000000E+00
  0.00000000E+00  0.00000000E+00  0.00000000E+00
  0.00000000E+00  0.00000000E+00  0.00000000E+00
  0.00000000E+00  0.00000000E+00  0.00000000E+00
  0.00000000E+00  0.00000000E+00  0.00000000E+00
  0.00000000E+00  0.00000000E+00  0.00000000E+00
  0.00000000E+00  0.00000000E+00  0.00000000E+00
  0.00000000E+00  0.00000000E+00  0.00000000E+00
  0.00000000E+00  0.00000000E+00  0.00000000E+00
  0.00000000E+00  0.00000000E+00  0.00000000E+00
  0.00000000E+00  0.00000000E+00  0.00000000E+00
  0.00000000E+00  0.00000000E+00  0.00000000E+00
  0.00000000E+00  0.00000000E+00  0.00000000E+00
  0.00000000E+00  0.00000000E+00  0.00000000E+00
  0.00000000E+00  0.00000000E+00  0.00000000E+00
  0.00000000E+00  0.00000000E+00  0.00000000E+00
  0.00000000E+00  0.00000000E+00  0.00000000E+00
  0.00000000E+00  0.00000000E+00  0.00000000E+00
  0.00000000E+00  0.00000000E+00  0.00000000E+00
  0.00000000E+00  0.00000000E+00  0.00000000E+00
  0.00000000E+00  0.00000000E+00  0.00000000E+00
  0.00000000E+00  0.00000000E+00  0.00000000E+00
  0.00000000E+00  0.00000000E+00  0.00000000E+00
  0.00000000E+00  0.00000000E+00  0.00000000E+00
  0.00000000E+00  0.00000000E+00  0.00000000E+00
  0.00000000E+00  0.00000000E+00  0.00000000E+00
  0.00000000E+00  0.00000000E+00  0.00000000E+00
  0.00000000E+00  0.00000000E+00  0.00000000E+00
