MAPbI3                                  
   1.00000000000000     
     7.4472939538688578   -0.0025266432820005    0.0039752292065645
    -0.0051045242741435    9.5905583898139195    0.2403548682503970
    -0.0056264102228939    0.3317779393653417   13.4921073035111618
   Pb   I    C    N    H 
     4    12     4     4    24
Direct
  0.2570693499990916  0.2388457761164040  0.2348730593439187
  0.2427629779070417  0.2388969340928226  0.7349752170700269
  0.7429508622311687  0.7388901228866460  0.2348743559038537
  0.7552247684207001  0.7400633987533816  0.7345685877087630
  0.1080317624548851  0.9195061540808555  0.2249618459372481
  0.8995100706444062  0.0484226850230376  0.7858170791356771
  0.2848828532620068  0.2376724436521705  0.9929372949539409
  0.2157290019449002  0.2319580048738284  0.4927628337260070
  0.4002326279601824  0.5483258305227920  0.2841679961774936
  0.6042890802014115  0.4215424872958124  0.7290690682686639
  0.6021155217773960  0.0501312794372901  0.2839168703032097
  0.8949223515362628  0.4218334515872332  0.2282798051578101
  0.0989086439156739  0.5504235913606828  0.7793078943628058
  0.3935980882849928  0.9226616042259335  0.7276655051878654
  0.7126641874347449  0.7331715533302128  0.9937732717580804
  0.7847998836926144  0.7342021091470309  0.4932332895262880
  0.2268682199561417  0.6799904139188397  0.0281630877016009
  0.7686694255139386  0.1882243029996611  0.0319697554349675
  0.7305955033388790  0.1884916949371965  0.5323988768039867
  0.2714467877247821  0.6931425786339943  0.5287600607794868
  0.1937257466046718  0.8184189392844902  0.9732251178066839
  0.8058567810075647  0.3237791906079832  0.9739799562676063
  0.6935962714683832  0.3242709973328243  0.4747881804936170
  0.3099089145859324  0.8285119983303058  0.4709947691607978
  0.3386808563939299  0.6920330219912906  0.0787676007714641
  0.2576466680156135  0.6027396359267622  0.9740448000895630
  0.1052907191006192  0.6507769546033774  0.0692984437274841
  0.0672880224217793  0.8208175864405488  0.9413222934395842
  0.1980104144851072  0.8987498478028094  0.0215708211192586
  0.2863475681681769  0.8392757481034679  0.9171321051944995
  0.7361518284944282  0.1088499970112134  0.9796675374688003
  0.8890951645253620  0.1589602946314929  0.0740160818465154
  0.6569264402390648  0.2042848650312463  0.0818217366509282
  0.9340341442044229  0.3235767768319673  0.9441732021526253
  0.7996365972688972  0.4071227658027946  0.0196289020618922
  0.7162092215176208  0.3420996716505349  0.9160193802932407
  0.6101854744845595  0.1589837225024134  0.5744552701845588
  0.7628385103247924  0.1094026655606344  0.4798230424859887
  0.8424587433935120  0.2042329729587782  0.5822816771269566
  0.6976974528293618  0.4070881940145585  0.5209839357850765
  0.7845361936537165  0.3437309443114280  0.4176118376568489
  0.5663046679739615  0.3236466195602823  0.4439104167148650
  0.2398347331680120  0.6138075372770245  0.4762573477534461
  0.3909141347329617  0.6636587649463394  0.5715426193446400
  0.1586549988283471  0.7092683393922384  0.5778919481876597
  0.4392144442670801  0.8287985263110724  0.4426731971512189
  0.3011401180569544  0.9122890413034102  0.5161139325602276
  0.2225452015840404  0.8461239636027701  0.4118760912623254
 
  0.00000000E+00  0.00000000E+00  0.00000000E+00
  0.00000000E+00  0.00000000E+00  0.00000000E+00
  0.00000000E+00  0.00000000E+00  0.00000000E+00
  0.00000000E+00  0.00000000E+00  0.00000000E+00
  0.00000000E+00  0.00000000E+00  0.00000000E+00
  0.00000000E+00  0.00000000E+00  0.00000000E+00
  0.00000000E+00  0.00000000E+00  0.00000000E+00
  0.00000000E+00  0.00000000E+00  0.00000000E+00
  0.00000000E+00  0.00000000E+00  0.00000000E+00
  0.00000000E+00  0.00000000E+00  0.00000000E+00
  0.00000000E+00  0.00000000E+00  0.00000000E+00
  0.00000000E+00  0.00000000E+00  0.00000000E+00
  0.00000000E+00  0.00000000E+00  0.00000000E+00
  0.00000000E+00  0.00000000E+00  0.00000000E+00
  0.00000000E+00  0.00000000E+00  0.00000000E+00
  0.00000000E+00  0.00000000E+00  0.00000000E+00
  0.00000000E+00  0.00000000E+00  0.00000000E+00
  0.00000000E+00  0.00000000E+00  0.00000000E+00
  0.00000000E+00  0.00000000E+00  0.00000000E+00
  0.00000000E+00  0.00000000E+00  0.00000000E+00
  0.00000000E+00  0.00000000E+00  0.00000000E+00
  0.00000000E+00  0.00000000E+00  0.00000000E+00
  0.00000000E+00  0.00000000E+00  0.00000000E+00
  0.00000000E+00  0.00000000E+00  0.00000000E+00
  0.00000000E+00  0.00000000E+00  0.00000000E+00
  0.00000000E+00  0.00000000E+00  0.00000000E+00
  0.00000000E+00  0.00000000E+00  0.00000000E+00
  0.00000000E+00  0.00000000E+00  0.00000000E+00
  0.00000000E+00  0.00000000E+00  0.00000000E+00
  0.00000000E+00  0.00000000E+00  0.00000000E+00
  0.00000000E+00  0.00000000E+00  0.00000000E+00
  0.00000000E+00  0.00000000E+00  0.00000000E+00
  0.00000000E+00  0.00000000E+00  0.00000000E+00
  0.00000000E+00  0.00000000E+00  0.00000000E+00
  0.00000000E+00  0.00000000E+00  0.00000000E+00
  0.00000000E+00  0.00000000E+00  0.00000000E+00
  0.00000000E+00  0.00000000E+00  0.00000000E+00
  0.00000000E+00  0.00000000E+00  0.00000000E+00
  0.00000000E+00  0.00000000E+00  0.00000000E+00
  0.00000000E+00  0.00000000E+00  0.00000000E+00
  0.00000000E+00  0.00000000E+00  0.00000000E+00
  0.00000000E+00  0.00000000E+00  0.00000000E+00
  0.00000000E+00  0.00000000E+00  0.00000000E+00
  0.00000000E+00  0.00000000E+00  0.00000000E+00
  0.00000000E+00  0.00000000E+00  0.00000000E+00
  0.00000000E+00  0.00000000E+00  0.00000000E+00
  0.00000000E+00  0.00000000E+00  0.00000000E+00
  0.00000000E+00  0.00000000E+00  0.00000000E+00
