MAPbI3                                  
   1.00000000000000     
     7.9886765797211288    0.0011229166608105    0.0435983231303528
     0.0010981871643001    9.4076322996543897    0.0526020311281056
     0.0636801895083043    0.0684634588982559   13.2759950881157049
   Pb   I    C    N    H 
     4    12     4     4    24
Direct
  0.2541738056585001  0.2293075382438431  0.2507795241645056
  0.2499858790796563  0.2303476232829680  0.7517784463255898
  0.7529872241264766  0.7311889903278238  0.2506966408768940
  0.7509505174311872  0.7332755497595660  0.7501401743435584
  0.0947830347252429  0.9085051601670069  0.2430307317446095
  0.9167758299505605  0.0411419654818806  0.7699657369219612
  0.2511942235078486  0.2163296311922396  0.0034626803622756
  0.2433276199000144  0.2184711920388624  0.5035804192088003
  0.4211955385581736  0.5374847733451875  0.2743978114173266
  0.5841436771529442  0.4178442996763491  0.7459713517002361
  0.5889990165653675  0.0426379299252145  0.2712585565639855
  0.9189706299325765  0.4160542207697046  0.2460146625731421
  0.0806194039926446  0.5392209310382788  0.7680398919387952
  0.4133867736974521  0.9144005077415454  0.7482604894858620
  0.7394418404382945  0.7225658981819026  0.0039307248544794
  0.7561749624411686  0.7222996962080199  0.5035472328321707
  0.2492576782355344  0.6785391093661297  0.0228094598011737
  0.7431180544722927  0.2047006431959282  0.0215789784315731
  0.7526709210687192  0.1995094633600815  0.5254748024950874
  0.2425940118543026  0.7062667682110699  0.5251591544838363
  0.1806968983914719  0.8121950546586538  0.9750468277509250
  0.8250986351059741  0.3294605149640476  0.9690377067540366
  0.6762802653954388  0.3258688542826401  0.4726289421070739
  0.3266827548163864  0.8280472265868624  0.4702935473630112
  0.3722859721318820  0.7022817917665229  0.0530554606868191
  0.2582063850415521  0.5972060713127476  0.9649102508285291
  0.1639007623288063  0.6450644408551766  0.0832838448442837
  0.0553995534405784  0.7992192491932880  0.9576771577564115
  0.1873864399095476  0.8969944295723933  0.0237173604373858
  0.2457831721215980  0.8395617317714408  0.9093860412337478
  0.7626882744455664  0.1106154044470523  0.9753973826112307
  0.7998837248875525  0.1912474619842948  0.0953765058518122
  0.6097510821791209  0.2273757013885156  0.0295882382980519
  0.9539464760723239  0.3150904293840643  0.9655293006869190
  0.8026941438904073  0.4237380854202504  0.0063288049419415
  0.7804165230508879  0.3425844509419287  0.8963513409057032
  0.6765645168717180  0.1741150383924519  0.5919228656399289
  0.7546991313904139  0.1106324114110977  0.4731635928643730
  0.8794078606413319  0.2275904834315511  0.5474543375486608
  0.6871766906241649  0.4172143099689505  0.5147069703619702
  0.7338748237483639  0.3454637356434984  0.4033023321268662
  0.5495137169410215  0.3092463356186160  0.4611547548768158
  0.2427695225971479  0.6143657336885556  0.4754885031918130
  0.3121691677992342  0.6834185048374546  0.5936686962583735
  0.1147426767221084  0.7377722034856279  0.5437102453073960
  0.4544031797835761  0.8095245000956193  0.4631753351227303
  0.3118111919664304  0.9228632271187548  0.5082005014301544
  0.2770178149164761  0.8428467262642620  0.3989136816871354
 
  0.00000000E+00  0.00000000E+00  0.00000000E+00
  0.00000000E+00  0.00000000E+00  0.00000000E+00
  0.00000000E+00  0.00000000E+00  0.00000000E+00
  0.00000000E+00  0.00000000E+00  0.00000000E+00
  0.00000000E+00  0.00000000E+00  0.00000000E+00
  0.00000000E+00  0.00000000E+00  0.00000000E+00
  0.00000000E+00  0.00000000E+00  0.00000000E+00
  0.00000000E+00  0.00000000E+00  0.00000000E+00
  0.00000000E+00  0.00000000E+00  0.00000000E+00
  0.00000000E+00  0.00000000E+00  0.00000000E+00
  0.00000000E+00  0.00000000E+00  0.00000000E+00
  0.00000000E+00  0.00000000E+00  0.00000000E+00
  0.00000000E+00  0.00000000E+00  0.00000000E+00
  0.00000000E+00  0.00000000E+00  0.00000000E+00
  0.00000000E+00  0.00000000E+00  0.00000000E+00
  0.00000000E+00  0.00000000E+00  0.00000000E+00
  0.00000000E+00  0.00000000E+00  0.00000000E+00
  0.00000000E+00  0.00000000E+00  0.00000000E+00
  0.00000000E+00  0.00000000E+00  0.00000000E+00
  0.00000000E+00  0.00000000E+00  0.00000000E+00
  0.00000000E+00  0.00000000E+00  0.00000000E+00
  0.00000000E+00  0.00000000E+00  0.00000000E+00
  0.00000000E+00  0.00000000E+00  0.00000000E+00
  0.00000000E+00  0.00000000E+00  0.00000000E+00
  0.00000000E+00  0.00000000E+00  0.00000000E+00
  0.00000000E+00  0.00000000E+00  0.00000000E+00
  0.00000000E+00  0.00000000E+00  0.00000000E+00
  0.00000000E+00  0.00000000E+00  0.00000000E+00
  0.00000000E+00  0.00000000E+00  0.00000000E+00
  0.00000000E+00  0.00000000E+00  0.00000000E+00
  0.00000000E+00  0.00000000E+00  0.00000000E+00
  0.00000000E+00  0.00000000E+00  0.00000000E+00
  0.00000000E+00  0.00000000E+00  0.00000000E+00
  0.00000000E+00  0.00000000E+00  0.00000000E+00
  0.00000000E+00  0.00000000E+00  0.00000000E+00
  0.00000000E+00  0.00000000E+00  0.00000000E+00
  0.00000000E+00  0.00000000E+00  0.00000000E+00
  0.00000000E+00  0.00000000E+00  0.00000000E+00
  0.00000000E+00  0.00000000E+00  0.00000000E+00
  0.00000000E+00  0.00000000E+00  0.00000000E+00
  0.00000000E+00  0.00000000E+00  0.00000000E+00
  0.00000000E+00  0.00000000E+00  0.00000000E+00
  0.00000000E+00  0.00000000E+00  0.00000000E+00
  0.00000000E+00  0.00000000E+00  0.00000000E+00
  0.00000000E+00  0.00000000E+00  0.00000000E+00
  0.00000000E+00  0.00000000E+00  0.00000000E+00
  0.00000000E+00  0.00000000E+00  0.00000000E+00
  0.00000000E+00  0.00000000E+00  0.00000000E+00
