MAPbI3                                  
   1.00000000000000     
     8.6557951145301590   -0.0048731404759543    0.0420363182034678
    -0.0050108153816183    9.0120257057251170   -0.0877344065612045
     0.0624373818982130   -0.1297194989761751   13.1152700456427898
   Pb   I    C    N    H 
     4    12     4     4    24
Direct
  0.2452154748124890  0.2294981149073944  0.2552156314981531
  0.2492642225759350  0.2359516547829226  0.7572589186294267
  0.7573014790022734  0.7309607017997007  0.2551487746574069
  0.7420393285605664  0.7359021218491015  0.7576099432913754
  0.0850789466837223  0.8994740537429090  0.2496974985828287
  0.9357336951921137  0.0377955564301450  0.7687829259501331
  0.2381512571984733  0.2243617044509311  0.0105502413684799
  0.2534621829372771  0.2175431556649707  0.5106229200603921
  0.4398335712203381  0.5337649951674889  0.2709053590319502
  0.5653628903792470  0.4176488175681799  0.7578655072971410
  0.5661248893228812  0.0363553587619060  0.2700825109538652
  0.9253870093161930  0.4063995204038109  0.2574114262690032
  0.0559323074993953  0.5394750380952319  0.7675480604439855
  0.4265561594152498  0.9192903008700759  0.7656133328045357
  0.7518865882772878  0.7206497161732363  0.0099098464900898
  0.7471450738677744  0.7256983325247776  0.5102444693734940
  0.2789699043861085  0.6820261524221389  0.0125140768836319
  0.7145979578818640  0.2145978347035888  0.0157207797691407
  0.7719836346136920  0.2143586325241376  0.5237535565079841
  0.2289558786457885  0.7144645156647933  0.5240915092751995
  0.1771785559751433  0.8054952675119303  0.9764276223328110
  0.8284155192982627  0.3186182982215030  0.9668670580384957
  0.6658776709425408  0.3210146145489408  0.4717718481239531
  0.3371553779062170  0.8178842838036031  0.4695807288348418
  0.3780646303461421  0.7316295426042749  0.0512203841729000
  0.3164928144873219  0.6160493428172675  0.9460482652766548
  0.2121763137438437  0.6143520613836655  0.0652563465698094
  0.0777699427386182  0.7638167850473602  0.9435708092807951
  0.1447247207018984  0.8744508733772176  0.0368989001542659
  0.2346583027446431  0.8676876299972295  0.9221372207813525
  0.7382094280073620  0.1021144253943217  0.9870334558852817
  0.7295348095991758  0.2217622253608661  0.0981844939240209
  0.5982061623239456  0.2488153139717646  0.9950044070190741
  0.9415021780765603  0.2920042946611011  0.9850400489995788
  0.8088956802040278  0.4279544196361722  0.9898765963169791
  0.8192834671002009  0.3139321975494325  0.8883983726985922
  0.7417198507383516  0.2136322081129603  0.6046600793648739
  0.7563706290269995  0.1043640447301246  0.4887286731542209
  0.8907662180764233  0.2525195866009636  0.5129473544415477
  0.6807264942543771  0.4287920182549042  0.4991131090235009
  0.6883863680212736  0.3221570241145754  0.3941816535640422
  0.5506850433817447  0.2924986860776073  0.4824004560274435
  0.2532445857409610  0.6010392861726653  0.4975409302558222
  0.2486509960888474  0.7265055071091204  0.6058582305916316
  0.1104645396152227  0.7451398164156680  0.5057697061877799
  0.4518916460656029  0.7941725280894548  0.4850941260609922
  0.3168449428908436  0.9278786870344675  0.4906771290998035
  0.3231226601148089  0.8091987528933438  0.3915127046806914
 
  0.00000000E+00  0.00000000E+00  0.00000000E+00
  0.00000000E+00  0.00000000E+00  0.00000000E+00
  0.00000000E+00  0.00000000E+00  0.00000000E+00
  0.00000000E+00  0.00000000E+00  0.00000000E+00
  0.00000000E+00  0.00000000E+00  0.00000000E+00
  0.00000000E+00  0.00000000E+00  0.00000000E+00
  0.00000000E+00  0.00000000E+00  0.00000000E+00
  0.00000000E+00  0.00000000E+00  0.00000000E+00
  0.00000000E+00  0.00000000E+00  0.00000000E+00
  0.00000000E+00  0.00000000E+00  0.00000000E+00
  0.00000000E+00  0.00000000E+00  0.00000000E+00
  0.00000000E+00  0.00000000E+00  0.00000000E+00
  0.00000000E+00  0.00000000E+00  0.00000000E+00
  0.00000000E+00  0.00000000E+00  0.00000000E+00
  0.00000000E+00  0.00000000E+00  0.00000000E+00
  0.00000000E+00  0.00000000E+00  0.00000000E+00
  0.00000000E+00  0.00000000E+00  0.00000000E+00
  0.00000000E+00  0.00000000E+00  0.00000000E+00
  0.00000000E+00  0.00000000E+00  0.00000000E+00
  0.00000000E+00  0.00000000E+00  0.00000000E+00
  0.00000000E+00  0.00000000E+00  0.00000000E+00
  0.00000000E+00  0.00000000E+00  0.00000000E+00
  0.00000000E+00  0.00000000E+00  0.00000000E+00
  0.00000000E+00  0.00000000E+00  0.00000000E+00
  0.00000000E+00  0.00000000E+00  0.00000000E+00
  0.00000000E+00  0.00000000E+00  0.00000000E+00
  0.00000000E+00  0.00000000E+00  0.00000000E+00
  0.00000000E+00  0.00000000E+00  0.00000000E+00
  0.00000000E+00  0.00000000E+00  0.00000000E+00
  0.00000000E+00  0.00000000E+00  0.00000000E+00
  0.00000000E+00  0.00000000E+00  0.00000000E+00
  0.00000000E+00  0.00000000E+00  0.00000000E+00
  0.00000000E+00  0.00000000E+00  0.00000000E+00
  0.00000000E+00  0.00000000E+00  0.00000000E+00
  0.00000000E+00  0.00000000E+00  0.00000000E+00
  0.00000000E+00  0.00000000E+00  0.00000000E+00
  0.00000000E+00  0.00000000E+00  0.00000000E+00
  0.00000000E+00  0.00000000E+00  0.00000000E+00
  0.00000000E+00  0.00000000E+00  0.00000000E+00
  0.00000000E+00  0.00000000E+00  0.00000000E+00
  0.00000000E+00  0.00000000E+00  0.00000000E+00
  0.00000000E+00  0.00000000E+00  0.00000000E+00
  0.00000000E+00  0.00000000E+00  0.00000000E+00
  0.00000000E+00  0.00000000E+00  0.00000000E+00
  0.00000000E+00  0.00000000E+00  0.00000000E+00
  0.00000000E+00  0.00000000E+00  0.00000000E+00
  0.00000000E+00  0.00000000E+00  0.00000000E+00
  0.00000000E+00  0.00000000E+00  0.00000000E+00
