MAPbI3                                  
   1.00000000000000     
     8.8310772723933457   -0.0041262631836208    0.0351081603470497
    -0.0041731955837137    8.9183198850889980   -0.0783973461298571
     0.0521635732238506   -0.1151244026566613   13.0768400391002952
   Pb   I    C    N    H 
     4    12     4     4    24
Direct
  0.2434076793776797  0.2316709574502906  0.2548106811348866
  0.2502303800280256  0.2355095642841030  0.7568882783263299
  0.7556613139444732  0.7326563702111311  0.2553235818539610
  0.7424312662185962  0.7361873399580594  0.7578697136238315
  0.0813851052467943  0.8999443800719186  0.2499339191598923
  0.9404474366689823  0.0369572283116348  0.7687131511111867
  0.2373326973366300  0.2254441746248002  0.0095868012359069
  0.2546139233417573  0.2198021046418416  0.5097304002698636
  0.4416449012322182  0.5354860238879678  0.2711446978011259
  0.5633589238645965  0.4174004602995898  0.7582865972192364
  0.5603290290666407  0.0364627814477346  0.2690673389447151
  0.9257685717025612  0.4055576916296306  0.2576731133582490
  0.0519834055660430  0.5395527494482857  0.7667625020648722
  0.4284347358090695  0.9182216926339273  0.7648419765488148
  0.7528215181285509  0.7216974107741283  0.0099122039008325
  0.7461431847400565  0.7277338706009953  0.5103856788505048
  0.2788206682080247  0.6815807574000894  0.0113950441664513
  0.7148945236447006  0.2145099594240314  0.0154971358974691
  0.7720114131457805  0.2147223134990481  0.5248962714827752
  0.2292510377153149  0.7147900556485700  0.5250672780849316
  0.1773485390334997  0.8059103449721788  0.9763165923396740
  0.8289549566088518  0.3171760001696868  0.9665860811800846
  0.6661704732181740  0.3201662210227794  0.4718460524281151
  0.3376412472837571  0.8170307387206189  0.4701925383045341
  0.3762967899881908  0.7321557482210690  0.0496528173612421
  0.3149063530152877  0.6159464238931806  0.9442584256317391
  0.2148719659819814  0.6122676777566206  0.0645428485207801
  0.0810481030909277  0.7632896478779558  0.9421342490867327
  0.1440185396688519  0.8733104676878296  0.0376759443295163
  0.2330336949170024  0.8712420741680216  0.9230531424520598
  0.7352968288876192  0.1004229704069265  0.9867601453590635
  0.7296813081498174  0.2212496119114565  0.0982011163201415
  0.6016590685983173  0.2518605888693457  0.9946052449896449
  0.9390967500519927  0.2886580557122980  0.9853821458957588
  0.8114808815888392  0.4281181164592227  0.9891456408644119
  0.8209074307877141  0.3120272291102349  0.8878390097475282
  0.7424877355799935  0.2144883331952768  0.6060221432107089
  0.7585677780109034  0.1029645018651126  0.4904803405020932
  0.8878007296098680  0.2550368567068649  0.5137967754613563
  0.6794964615297979  0.4296971949877765  0.4983443054235305
  0.6877205843416491  0.3201742818408517  0.3939762592187530
  0.5537678445441361  0.2901754569844993  0.4827821227500785
  0.2511109451703794  0.5995991953768530  0.4990534771461435
  0.2483551122324225  0.7272853716159274  0.6070822858156644
  0.1138242241842490  0.7478188894121063  0.5060468364641455
  0.4495241563984100  0.7920290510151037  0.4866382077345395
  0.3188757968943892  0.9287330854660079  0.4902846383266908
  0.3250859856464855  0.8069739783264354  0.3918622480994673
 
  0.00000000E+00  0.00000000E+00  0.00000000E+00
  0.00000000E+00  0.00000000E+00  0.00000000E+00
  0.00000000E+00  0.00000000E+00  0.00000000E+00
  0.00000000E+00  0.00000000E+00  0.00000000E+00
  0.00000000E+00  0.00000000E+00  0.00000000E+00
  0.00000000E+00  0.00000000E+00  0.00000000E+00
  0.00000000E+00  0.00000000E+00  0.00000000E+00
  0.00000000E+00  0.00000000E+00  0.00000000E+00
  0.00000000E+00  0.00000000E+00  0.00000000E+00
  0.00000000E+00  0.00000000E+00  0.00000000E+00
  0.00000000E+00  0.00000000E+00  0.00000000E+00
  0.00000000E+00  0.00000000E+00  0.00000000E+00
  0.00000000E+00  0.00000000E+00  0.00000000E+00
  0.00000000E+00  0.00000000E+00  0.00000000E+00
  0.00000000E+00  0.00000000E+00  0.00000000E+00
  0.00000000E+00  0.00000000E+00  0.00000000E+00
  0.00000000E+00  0.00000000E+00  0.00000000E+00
  0.00000000E+00  0.00000000E+00  0.00000000E+00
  0.00000000E+00  0.00000000E+00  0.00000000E+00
  0.00000000E+00  0.00000000E+00  0.00000000E+00
  0.00000000E+00  0.00000000E+00  0.00000000E+00
  0.00000000E+00  0.00000000E+00  0.00000000E+00
  0.00000000E+00  0.00000000E+00  0.00000000E+00
  0.00000000E+00  0.00000000E+00  0.00000000E+00
  0.00000000E+00  0.00000000E+00  0.00000000E+00
  0.00000000E+00  0.00000000E+00  0.00000000E+00
  0.00000000E+00  0.00000000E+00  0.00000000E+00
  0.00000000E+00  0.00000000E+00  0.00000000E+00
  0.00000000E+00  0.00000000E+00  0.00000000E+00
  0.00000000E+00  0.00000000E+00  0.00000000E+00
  0.00000000E+00  0.00000000E+00  0.00000000E+00
  0.00000000E+00  0.00000000E+00  0.00000000E+00
  0.00000000E+00  0.00000000E+00  0.00000000E+00
  0.00000000E+00  0.00000000E+00  0.00000000E+00
  0.00000000E+00  0.00000000E+00  0.00000000E+00
  0.00000000E+00  0.00000000E+00  0.00000000E+00
  0.00000000E+00  0.00000000E+00  0.00000000E+00
  0.00000000E+00  0.00000000E+00  0.00000000E+00
  0.00000000E+00  0.00000000E+00  0.00000000E+00
  0.00000000E+00  0.00000000E+00  0.00000000E+00
  0.00000000E+00  0.00000000E+00  0.00000000E+00
  0.00000000E+00  0.00000000E+00  0.00000000E+00
  0.00000000E+00  0.00000000E+00  0.00000000E+00
  0.00000000E+00  0.00000000E+00  0.00000000E+00
  0.00000000E+00  0.00000000E+00  0.00000000E+00
  0.00000000E+00  0.00000000E+00  0.00000000E+00
  0.00000000E+00  0.00000000E+00  0.00000000E+00
  0.00000000E+00  0.00000000E+00  0.00000000E+00
