MAPbI3                                  
   1.00000000000000     
    12.0213476804126671    0.0606308889311744    0.1086241079539825
     0.0638739815169089    8.6743240280141816    0.1550128923318544
     0.0635153529487753    0.1727168155323652   10.3047606522130017
   Pb   I    C    N    H 
     4    12     4     4    24
Direct
  0.2754448252188807  0.2553026200702866  0.2590575930917819
  0.4014175534034093  0.2459283482815178  0.6504123897139007
  0.9092381281748565  0.7222129939180929  0.1547767300975529
  0.7834111362196481  0.7623165208138094  0.7631427575725881
  0.1209482065302408  0.9367977989941132  0.2214166203371127
  0.9411699892812405  0.0252390714835114  0.8455542774679045
  0.2928149221484819  0.2769724410875469  0.9259767061027625
  0.1579415480043967  0.2185334816479423  0.5414077212474353
  0.4369504548748619  0.5186544263560884  0.3421330018813536
  0.6092050143817149  0.4615444305287861  0.7184967678117289
  0.4760420793503268  0.0441109668239048  0.3299404278158483
  0.9614905380563307  0.3766508825407184  0.2255081339677988
  0.9804977571753120  0.5483506401044974  0.8389747669402825
  0.4763408303219764  0.9117224637684581  0.7290156114376847
  0.6650860454499053  0.7224193239680261  0.0468613660860838
  0.8057098038660538  0.7598882215715664  0.4331833188011774
  0.3185422013607362  0.7137923346187045  0.0098009653722078
  0.6572028501873216  0.2189929010207931  0.0582202883995620
  0.8000467339059933  0.2065533034075272  0.5204818651603070
  0.1710164166289092  0.7189960305913219  0.5679841474853708
  0.2361075668969700  0.8062045634970432  0.9288164401241069
  0.7529637684736337  0.2905041048909220  0.9840200163589603
  0.7234106000293203  0.3000820961052280  0.4328612890300621
  0.2664704678732034  0.7932050588606716  0.4953322192603389
  0.3742586766756807  0.7945136958235498  0.0543918752442955
  0.3649498355088174  0.6365423369763593  0.9468693484012036
  0.2723186711054101  0.6482999785168712  0.0845477242759188
  0.1776085148878253  0.7365620365161406  0.8881459988715709
  0.1929494966431646  0.8828548269792108  0.9873219953729554
  0.2782925128301784  0.8684075105134703  0.8562416559997477
  0.6897532506827438  0.1323667477190131  0.1276958159816786
  0.6112048808191506  0.3098544607919985  0.1077941923496525
  0.6028765789939134  0.1636847768716823  0.9899910995243663
  0.8063720700994248  0.3462095266564336  0.0444604802921179
  0.7240026080219212  0.3680106133788760  0.9128595884818311
  0.8015331152119304  0.2075754722828633  0.9375120083844471
  0.8588008757020792  0.2851745580981220  0.5625541137858592
  0.7494946304376134  0.1503945255866911  0.5968238098508970
  0.8437712427483562  0.1209790404321017  0.4628389264077357
  0.7699294064727672  0.3529574261232992  0.3585498336733280
  0.6629012858821856  0.2323278332634738  0.3935130902968316
  0.6827943540439931  0.3846392704081090  0.4854922398110385
  0.2037807179904045  0.6328131907359894  0.6378084455711209
  0.1228815562718807  0.8083627569995521  0.6168470554505984
  0.1183479444745678  0.6624434153353339  0.4987801416701185
  0.3195753783395435  0.8491020809705550  0.5560341847214241
  0.2371681622771470  0.8711189268369114  0.4248592349928682
  0.3149667960655699  0.7115259672323377  0.4470397190246106
 
  0.00000000E+00  0.00000000E+00  0.00000000E+00
  0.00000000E+00  0.00000000E+00  0.00000000E+00
  0.00000000E+00  0.00000000E+00  0.00000000E+00
  0.00000000E+00  0.00000000E+00  0.00000000E+00
  0.00000000E+00  0.00000000E+00  0.00000000E+00
  0.00000000E+00  0.00000000E+00  0.00000000E+00
  0.00000000E+00  0.00000000E+00  0.00000000E+00
  0.00000000E+00  0.00000000E+00  0.00000000E+00
  0.00000000E+00  0.00000000E+00  0.00000000E+00
  0.00000000E+00  0.00000000E+00  0.00000000E+00
  0.00000000E+00  0.00000000E+00  0.00000000E+00
  0.00000000E+00  0.00000000E+00  0.00000000E+00
  0.00000000E+00  0.00000000E+00  0.00000000E+00
  0.00000000E+00  0.00000000E+00  0.00000000E+00
  0.00000000E+00  0.00000000E+00  0.00000000E+00
  0.00000000E+00  0.00000000E+00  0.00000000E+00
  0.00000000E+00  0.00000000E+00  0.00000000E+00
  0.00000000E+00  0.00000000E+00  0.00000000E+00
  0.00000000E+00  0.00000000E+00  0.00000000E+00
  0.00000000E+00  0.00000000E+00  0.00000000E+00
  0.00000000E+00  0.00000000E+00  0.00000000E+00
  0.00000000E+00  0.00000000E+00  0.00000000E+00
  0.00000000E+00  0.00000000E+00  0.00000000E+00
  0.00000000E+00  0.00000000E+00  0.00000000E+00
  0.00000000E+00  0.00000000E+00  0.00000000E+00
  0.00000000E+00  0.00000000E+00  0.00000000E+00
  0.00000000E+00  0.00000000E+00  0.00000000E+00
  0.00000000E+00  0.00000000E+00  0.00000000E+00
  0.00000000E+00  0.00000000E+00  0.00000000E+00
  0.00000000E+00  0.00000000E+00  0.00000000E+00
  0.00000000E+00  0.00000000E+00  0.00000000E+00
  0.00000000E+00  0.00000000E+00  0.00000000E+00
  0.00000000E+00  0.00000000E+00  0.00000000E+00
  0.00000000E+00  0.00000000E+00  0.00000000E+00
  0.00000000E+00  0.00000000E+00  0.00000000E+00
  0.00000000E+00  0.00000000E+00  0.00000000E+00
  0.00000000E+00  0.00000000E+00  0.00000000E+00
  0.00000000E+00  0.00000000E+00  0.00000000E+00
  0.00000000E+00  0.00000000E+00  0.00000000E+00
  0.00000000E+00  0.00000000E+00  0.00000000E+00
  0.00000000E+00  0.00000000E+00  0.00000000E+00
  0.00000000E+00  0.00000000E+00  0.00000000E+00
  0.00000000E+00  0.00000000E+00  0.00000000E+00
  0.00000000E+00  0.00000000E+00  0.00000000E+00
  0.00000000E+00  0.00000000E+00  0.00000000E+00
  0.00000000E+00  0.00000000E+00  0.00000000E+00
  0.00000000E+00  0.00000000E+00  0.00000000E+00
  0.00000000E+00  0.00000000E+00  0.00000000E+00
