MAPbI3                                  
   1.00000000000000     
     7.1545626080615943   -0.0000291714075787    0.0034121183120170
    -0.0018840044880894    9.6071321495165360    0.3244362830868448
    -0.0067442490709056    0.4369179580940891   13.9919520895514573
   Pb   I    C    N    H 
     4    12     4     4    24
Direct
  0.2644536971834697  0.2492393573564731  0.2225744612710484
  0.2351259083179313  0.2492953807270492  0.7222480960181893
  0.7347399452071764  0.7510467678981130  0.2207822440201411
  0.7652448256996666  0.7510202802950813  0.7208023755167684
  0.1168282432526869  0.9305449699775312  0.2128552457004552
  0.8924523492634480  0.0609258681285970  0.7940981641299123
  0.3061202133846989  0.2602603372294336  0.9974257584414264
  0.1934264913305175  0.2595236987879920  0.4971599022627449
  0.3964774616551003  0.5566907035089851  0.2961812032661429
  0.6130527703566581  0.4351435279442831  0.7117484036073439
  0.6081201973950309  0.0614215813681361  0.2934621739985203
  0.8870800737315465  0.4359022031669940  0.2117353289416940
  0.1035397010992414  0.5566024811141461  0.7961437525698425
  0.3832073881454024  0.9305744694746015  0.7128512781924053
  0.6989127352506306  0.7623462578773441  0.9952130042013997
  0.8015908803628543  0.7621391945324583  0.4952585739549399
  0.2171800184165965  0.6762291733655571  0.0293870428768608
  0.7881299207472827  0.1797244502669893  0.0291177055975801
  0.7103093409501907  0.1775380974411786  0.5292338560491383
  0.2832262302546233  0.6758013267016783  0.5296290539219626
  0.2140151375826580  0.8183250195325061  0.9770066490434908
  0.7904889208802303  0.3219098161062349  0.9769138870261866
  0.7096411899148690  0.3197936227396814  0.4770532049525648
  0.2867989830686479  0.8177386751316578  0.4770141828965891
  0.2841355688581530  0.6860101281344911  0.0985654074293210
  0.2953270225934830  0.6056779077744822  0.9865203007264577
  0.0732170055423914  0.6410103303074891  0.0390134681017493
  0.1391012731039160  0.8186875533197316  0.9140450585453697
  0.1557470953951948  0.8903022289116936  0.0201414637502130
  0.3498534615459716  0.8494133055769573  0.9608477744418241
  0.7122713071159830  0.1085407953435085  0.9857318160990072
  0.9323737545786926  0.1456667646551838  0.0396659612596175
  0.7190234767751571  0.1888524572416414  0.0977968479157722
  0.8696354842756213  0.3242196553433419  0.9152365514064216
  0.8437500939793976  0.3944483499904540  0.0212512748023525
  0.6549961408362360  0.3512308169068140  0.9587012726656029
  0.5657460982455575  0.1436836188593518  0.5387080154890743
  0.7873023181829459  0.1063361058557972  0.4863617409659348
  0.7775321615940631  0.1865081178434106  0.5984340293134049
  0.6548337254221245  0.3924074314915049  0.5208504594723223
  0.8458210681361609  0.3490022427600162  0.4600844316907250
  0.6327720856547630  0.3220014522643240  0.4146269559910666
  0.2057233028575773  0.6050154455207607  0.4866381112174690
  0.4271262924947004  0.6407058644760865  0.5397524651765279
  0.2154127562435687  0.6857918450996385  0.5985568793163819
  0.3628032577305219  0.8179076367611524  0.4144032264764662
  0.3441577375200127  0.8899194126296980  0.5203032299172345
  0.1511768878666847  0.8486192722596874  0.4602157093724194
 
  0.00000000E+00  0.00000000E+00  0.00000000E+00
  0.00000000E+00  0.00000000E+00  0.00000000E+00
  0.00000000E+00  0.00000000E+00  0.00000000E+00
  0.00000000E+00  0.00000000E+00  0.00000000E+00
  0.00000000E+00  0.00000000E+00  0.00000000E+00
  0.00000000E+00  0.00000000E+00  0.00000000E+00
  0.00000000E+00  0.00000000E+00  0.00000000E+00
  0.00000000E+00  0.00000000E+00  0.00000000E+00
  0.00000000E+00  0.00000000E+00  0.00000000E+00
  0.00000000E+00  0.00000000E+00  0.00000000E+00
  0.00000000E+00  0.00000000E+00  0.00000000E+00
  0.00000000E+00  0.00000000E+00  0.00000000E+00
  0.00000000E+00  0.00000000E+00  0.00000000E+00
  0.00000000E+00  0.00000000E+00  0.00000000E+00
  0.00000000E+00  0.00000000E+00  0.00000000E+00
  0.00000000E+00  0.00000000E+00  0.00000000E+00
  0.00000000E+00  0.00000000E+00  0.00000000E+00
  0.00000000E+00  0.00000000E+00  0.00000000E+00
  0.00000000E+00  0.00000000E+00  0.00000000E+00
  0.00000000E+00  0.00000000E+00  0.00000000E+00
  0.00000000E+00  0.00000000E+00  0.00000000E+00
  0.00000000E+00  0.00000000E+00  0.00000000E+00
  0.00000000E+00  0.00000000E+00  0.00000000E+00
  0.00000000E+00  0.00000000E+00  0.00000000E+00
  0.00000000E+00  0.00000000E+00  0.00000000E+00
  0.00000000E+00  0.00000000E+00  0.00000000E+00
  0.00000000E+00  0.00000000E+00  0.00000000E+00
  0.00000000E+00  0.00000000E+00  0.00000000E+00
  0.00000000E+00  0.00000000E+00  0.00000000E+00
  0.00000000E+00  0.00000000E+00  0.00000000E+00
  0.00000000E+00  0.00000000E+00  0.00000000E+00
  0.00000000E+00  0.00000000E+00  0.00000000E+00
  0.00000000E+00  0.00000000E+00  0.00000000E+00
  0.00000000E+00  0.00000000E+00  0.00000000E+00
  0.00000000E+00  0.00000000E+00  0.00000000E+00
  0.00000000E+00  0.00000000E+00  0.00000000E+00
  0.00000000E+00  0.00000000E+00  0.00000000E+00
  0.00000000E+00  0.00000000E+00  0.00000000E+00
  0.00000000E+00  0.00000000E+00  0.00000000E+00
  0.00000000E+00  0.00000000E+00  0.00000000E+00
  0.00000000E+00  0.00000000E+00  0.00000000E+00
  0.00000000E+00  0.00000000E+00  0.00000000E+00
  0.00000000E+00  0.00000000E+00  0.00000000E+00
  0.00000000E+00  0.00000000E+00  0.00000000E+00
  0.00000000E+00  0.00000000E+00  0.00000000E+00
  0.00000000E+00  0.00000000E+00  0.00000000E+00
  0.00000000E+00  0.00000000E+00  0.00000000E+00
  0.00000000E+00  0.00000000E+00  0.00000000E+00
