MAPbI3                                  
   1.00000000000000     
     8.3993367400987751   -0.0022348280979858    0.0501653994946925
    -0.0022922832986925    9.1749546527774815   -0.0688632408555822
     0.0747124634922136   -0.1042225140154780   13.1627842658142296
   Pb   I    C    N    H 
     4    12     4     4    24
Direct
  0.2489596758380856  0.2283757352241881  0.2546000017549528
  0.2486738713920472  0.2336716455985056  0.7571191062017933
  0.7572177696626156  0.7294252738570359  0.2548679363056820
  0.7440135365246613  0.7333518532559875  0.7567307377942896
  0.0878367108227379  0.9019386065257465  0.2486498245489132
  0.9292785782905388  0.0370909126486866  0.7710802423615144
  0.2387633485399767  0.2207815523552703  0.0099009485749103
  0.2516888995467652  0.2145379810710798  0.5100777643674030
  0.4326160391259568  0.5340449493456781  0.2727820096654425
  0.5703451449445511  0.4169672451506272  0.7551750203232005
  0.5750076977929349  0.0358518551004934  0.2710055255083654
  0.9245239787201378  0.4073998016784388  0.2547194305699116
  0.0643877643901946  0.5390125505876219  0.7675461125345667
  0.4232157938351653  0.9184910999903693  0.7620853027027238
  0.7506905346823832  0.7187784781719342  0.0091643517216569
  0.7480748967409934  0.7209865499050442  0.5096869324162002
  0.2769115137468426  0.6832583019957658  0.0157268309543717
  0.7149012174878308  0.2145572795357213  0.0158302320341416
  0.7723428015630688  0.2119970960608870  0.5226116555807404
  0.2302523048474134  0.7128396299209352  0.5237544336370504
  0.1777777137340609  0.8068212126327416  0.9769147335273376
  0.8264461072634032  0.3217765916662689  0.9669273858590811
  0.6676216640230277  0.3216876933275380  0.4718926212239040
  0.3345733537715022  0.8204598656440920  0.4691304393370860
  0.3812124494887500  0.7294629459011389  0.0529524628478509
  0.3122810186689328  0.6140828797337373  0.9510650786540703
  0.2050845455476922  0.6219838914645797  0.0700273153452650
  0.0701068948857386  0.7694660302640082  0.9495629569257600
  0.1527094950283505  0.8812869743145846  0.0346603180572292
  0.2369421073446824  0.8599055873042887  0.9184382641787567
  0.7437039263132603  0.1055685095673690  0.9863700186657954
  0.7312035333907565  0.2207243192549722  0.0978745368039105
  0.5932116287675757  0.2438265696128300  0.9962529018453732
  0.9444841054538669  0.2977870734573673  0.9826725973431533
  0.8040341760506922  0.4276327513767099  0.9919405122484377
  0.8133935102412629  0.3203844182255741  0.8889442137914095
  0.7384565609855808  0.2074525342040048  0.6027217156951721
  0.7551234072890486  0.1062257758568570  0.4849636709270738
  0.8959177990156443  0.2473262751683589  0.5143124267250587
  0.6833638470397821  0.4255031075949997  0.5022434808133016
  0.6946343178415594  0.3273367986555829  0.3951165181053623
  0.5480223499040175  0.2948255200168505  0.4799723167182519
  0.2581087003630599  0.6035927452446170  0.4943499174496100
  0.2546862829304175  0.7213944526153420  0.6048259990314006
  0.1060762148732021  0.7397477567124395  0.5090473626076594
  0.4544073168659303  0.7990173374616797  0.4809071316333021
  0.3120243700580985  0.9266889532691818  0.4934113163576411
  0.3146925243652127  0.8163690314721680  0.3917353877239153
 
  0.00000000E+00  0.00000000E+00  0.00000000E+00
  0.00000000E+00  0.00000000E+00  0.00000000E+00
  0.00000000E+00  0.00000000E+00  0.00000000E+00
  0.00000000E+00  0.00000000E+00  0.00000000E+00
  0.00000000E+00  0.00000000E+00  0.00000000E+00
  0.00000000E+00  0.00000000E+00  0.00000000E+00
  0.00000000E+00  0.00000000E+00  0.00000000E+00
  0.00000000E+00  0.00000000E+00  0.00000000E+00
  0.00000000E+00  0.00000000E+00  0.00000000E+00
  0.00000000E+00  0.00000000E+00  0.00000000E+00
  0.00000000E+00  0.00000000E+00  0.00000000E+00
  0.00000000E+00  0.00000000E+00  0.00000000E+00
  0.00000000E+00  0.00000000E+00  0.00000000E+00
  0.00000000E+00  0.00000000E+00  0.00000000E+00
  0.00000000E+00  0.00000000E+00  0.00000000E+00
  0.00000000E+00  0.00000000E+00  0.00000000E+00
  0.00000000E+00  0.00000000E+00  0.00000000E+00
  0.00000000E+00  0.00000000E+00  0.00000000E+00
  0.00000000E+00  0.00000000E+00  0.00000000E+00
  0.00000000E+00  0.00000000E+00  0.00000000E+00
  0.00000000E+00  0.00000000E+00  0.00000000E+00
  0.00000000E+00  0.00000000E+00  0.00000000E+00
  0.00000000E+00  0.00000000E+00  0.00000000E+00
  0.00000000E+00  0.00000000E+00  0.00000000E+00
  0.00000000E+00  0.00000000E+00  0.00000000E+00
  0.00000000E+00  0.00000000E+00  0.00000000E+00
  0.00000000E+00  0.00000000E+00  0.00000000E+00
  0.00000000E+00  0.00000000E+00  0.00000000E+00
  0.00000000E+00  0.00000000E+00  0.00000000E+00
  0.00000000E+00  0.00000000E+00  0.00000000E+00
  0.00000000E+00  0.00000000E+00  0.00000000E+00
  0.00000000E+00  0.00000000E+00  0.00000000E+00
  0.00000000E+00  0.00000000E+00  0.00000000E+00
  0.00000000E+00  0.00000000E+00  0.00000000E+00
  0.00000000E+00  0.00000000E+00  0.00000000E+00
  0.00000000E+00  0.00000000E+00  0.00000000E+00
  0.00000000E+00  0.00000000E+00  0.00000000E+00
  0.00000000E+00  0.00000000E+00  0.00000000E+00
  0.00000000E+00  0.00000000E+00  0.00000000E+00
  0.00000000E+00  0.00000000E+00  0.00000000E+00
  0.00000000E+00  0.00000000E+00  0.00000000E+00
  0.00000000E+00  0.00000000E+00  0.00000000E+00
  0.00000000E+00  0.00000000E+00  0.00000000E+00
  0.00000000E+00  0.00000000E+00  0.00000000E+00
  0.00000000E+00  0.00000000E+00  0.00000000E+00
  0.00000000E+00  0.00000000E+00  0.00000000E+00
  0.00000000E+00  0.00000000E+00  0.00000000E+00
  0.00000000E+00  0.00000000E+00  0.00000000E+00
