MAPbI3                                  
   1.00000000000000     
     9.5646838643014327   -0.0021734766506096    0.0005299914007316
    -0.0013336109026725    8.4641479037951317   -0.2414860566538774
     0.0037758601307671   -0.3512876800790722   12.9595335573162558
   Pb   I    C    N    H 
     4    12     4     4    24
Direct
  0.2414690287779231  0.2298550846520397  0.2552029105067846
  0.2537069719213994  0.2425860526896355  0.7572057601285418
  0.7606249271345576  0.7290691905996858  0.2557678834057903
  0.7384029237142364  0.7411897921569709  0.7572557256845737
  0.0716261939823874  0.8920914589372922  0.2508821294998568
  0.9558112118190322  0.0398721587455952  0.7632759225847885
  0.2423647826748950  0.2307168489923317  0.0069985486431972
  0.2541887521219162  0.2252317950530676  0.5068243844918241
  0.4584508617634365  0.5298978605383767  0.2636678199781005
  0.5594846545067548  0.4134135101750293  0.7538626094414725
  0.5442470853881555  0.0298280040761866  0.2634540758802178
  0.9309994108378741  0.3913820259499727  0.2540127824340781
  0.0394469848006989  0.5409419074544630  0.7652415749153059
  0.4351257416695313  0.9135097781140954  0.7522093072881954
  0.7524010128122672  0.7276491484243800  0.0078897924132923
  0.7466654018977448  0.7259296910673664  0.5076450651901682
  0.3049925579140055  0.7226948512786363  0.0134533545780682
  0.7036302483905429  0.2210696807083685  0.0146931885048999
  0.7799171224211564  0.2226093655070271  0.5221453247120675
  0.2145807148128701  0.7193275518212279  0.5186912435011053
  0.1727416468300106  0.7999387363302909  0.9777716616024779
  0.8320636525158386  0.3023765357913090  0.9759220120664943
  0.6566752370183564  0.3027962010144187  0.4748691281716597
  0.3388395811592453  0.8010989200541407  0.4736760345475712
  0.3543737269285533  0.8018383771303120  0.0721382459654232
  0.3739071383230525  0.7029343756178591  0.9467811684205942
  0.2771291455909287  0.6107428201330082  0.0459984090865628
  0.1259835440506606  0.7328105956540865  0.9175048637739094
  0.1023814576809547  0.8141502836797794  0.0383342464946343
  0.1929488653570755  0.9116931674772283  0.9528361711798958
  0.7325653077562176  0.1013028569147499  0.0335833903128101
  0.6656600605764261  0.2880167927960604  0.0834926160603873
  0.6249335501270428  0.2181426068250214  0.9535535077545889
  0.9101312908251799  0.3059080810908321  0.0311595391728621
  0.8105758624954446  0.4186443725687801  0.9603624821032103
  0.8706300687490807  0.2436411371330577  0.9092181526093387
  0.8018174865117211  0.2820679367380690  0.5972446716754961
  0.7528148701868991  0.0987678612712190  0.5311310156431083
  0.8691955780073803  0.2316522660323181  0.4701495708382337
  0.6775577037327439  0.4215153515619141  0.4659044569788516
  0.6312192773617650  0.2488436304321822  0.4033492896141283
  0.5691747833211798  0.2977819496782129  0.5213846217242503
  0.2423726541211913  0.5958757045538730  0.5282668852285066
  0.1896367649439638  0.7787091547895723  0.5933167325926529
  0.1271458707546874  0.7271554970816794  0.4649967548748825
  0.4244266349988959  0.7977812399778504  0.5221655133590937
  0.3173957105677480  0.9194856334544748  0.4640503958134493
  0.3675679401464410  0.7471581572759206  0.4028070585526450
 
  0.00000000E+00  0.00000000E+00  0.00000000E+00
  0.00000000E+00  0.00000000E+00  0.00000000E+00
  0.00000000E+00  0.00000000E+00  0.00000000E+00
  0.00000000E+00  0.00000000E+00  0.00000000E+00
  0.00000000E+00  0.00000000E+00  0.00000000E+00
  0.00000000E+00  0.00000000E+00  0.00000000E+00
  0.00000000E+00  0.00000000E+00  0.00000000E+00
  0.00000000E+00  0.00000000E+00  0.00000000E+00
  0.00000000E+00  0.00000000E+00  0.00000000E+00
  0.00000000E+00  0.00000000E+00  0.00000000E+00
  0.00000000E+00  0.00000000E+00  0.00000000E+00
  0.00000000E+00  0.00000000E+00  0.00000000E+00
  0.00000000E+00  0.00000000E+00  0.00000000E+00
  0.00000000E+00  0.00000000E+00  0.00000000E+00
  0.00000000E+00  0.00000000E+00  0.00000000E+00
  0.00000000E+00  0.00000000E+00  0.00000000E+00
  0.00000000E+00  0.00000000E+00  0.00000000E+00
  0.00000000E+00  0.00000000E+00  0.00000000E+00
  0.00000000E+00  0.00000000E+00  0.00000000E+00
  0.00000000E+00  0.00000000E+00  0.00000000E+00
  0.00000000E+00  0.00000000E+00  0.00000000E+00
  0.00000000E+00  0.00000000E+00  0.00000000E+00
  0.00000000E+00  0.00000000E+00  0.00000000E+00
  0.00000000E+00  0.00000000E+00  0.00000000E+00
  0.00000000E+00  0.00000000E+00  0.00000000E+00
  0.00000000E+00  0.00000000E+00  0.00000000E+00
  0.00000000E+00  0.00000000E+00  0.00000000E+00
  0.00000000E+00  0.00000000E+00  0.00000000E+00
  0.00000000E+00  0.00000000E+00  0.00000000E+00
  0.00000000E+00  0.00000000E+00  0.00000000E+00
  0.00000000E+00  0.00000000E+00  0.00000000E+00
  0.00000000E+00  0.00000000E+00  0.00000000E+00
  0.00000000E+00  0.00000000E+00  0.00000000E+00
  0.00000000E+00  0.00000000E+00  0.00000000E+00
  0.00000000E+00  0.00000000E+00  0.00000000E+00
  0.00000000E+00  0.00000000E+00  0.00000000E+00
  0.00000000E+00  0.00000000E+00  0.00000000E+00
  0.00000000E+00  0.00000000E+00  0.00000000E+00
  0.00000000E+00  0.00000000E+00  0.00000000E+00
  0.00000000E+00  0.00000000E+00  0.00000000E+00
  0.00000000E+00  0.00000000E+00  0.00000000E+00
  0.00000000E+00  0.00000000E+00  0.00000000E+00
  0.00000000E+00  0.00000000E+00  0.00000000E+00
  0.00000000E+00  0.00000000E+00  0.00000000E+00
  0.00000000E+00  0.00000000E+00  0.00000000E+00
  0.00000000E+00  0.00000000E+00  0.00000000E+00
  0.00000000E+00  0.00000000E+00  0.00000000E+00
  0.00000000E+00  0.00000000E+00  0.00000000E+00
