MAPbI3                                  
   1.00000000000000     
     8.6992656498224896   -0.0004271510361222    0.0381178544255999
    -0.0003638292180834    8.9849418324333090   -0.0852296106207595
     0.0564887579983288   -0.1257671547786111   13.1032134044607584
   Pb   I    C    N    H 
     4    12     4     4    24
Direct
  0.2447657699473883  0.2303815393156611  0.2546555084674823
  0.2494457878426050  0.2359008723762619  0.7570321659566025
  0.7569914264593126  0.7315762134180610  0.2549679611170564
  0.7420798662036761  0.7364560786699276  0.7575609516491668
  0.0839958070158809  0.8993539771310147  0.2498463398920652
  0.9378945382754807  0.0373506446654069  0.7689907447002028
  0.2373547218077951  0.2251235293291332  0.0097449614955830
  0.2541096674987977  0.2185853764607298  0.5099913217986880
  0.4399927648029037  0.5343887037372521  0.2710244411336187
  0.5649886331845557  0.4176783507620709  0.7581740899012828
  0.5652305148088278  0.0367499014160099  0.2688791064306506
  0.9250907923600721  0.4056911814383559  0.2578119853214788
  0.0551780510677126  0.5395922721350757  0.7671904443451908
  0.4270546490373310  0.9187651289428072  0.7651129769276181
  0.7525083054802381  0.7210413080506621  0.0099959414685773
  0.7478320888028787  0.7269419440379118  0.5106705928010117
  0.2790636849492247  0.6817862224564881  0.0113962077681472
  0.7143560565680964  0.2144754500277675  0.0155566169034492
  0.7717872151297122  0.2145717360416559  0.5247126156358525
  0.2290176838847201  0.7149673966328158  0.5249428186967161
  0.1768819554485827  0.8055893458222261  0.9760956378042663
  0.8285540098220803  0.3178193780610635  0.9668313568734853
  0.6657866239756269  0.3204750661383704  0.4719016644194818
  0.3376254402694064  0.8175161831246121  0.4700938467678911
  0.3777899509692425  0.7316406423950660  0.0499285458631723
  0.3160266715148274  0.6163078093292821  0.9445420407691854
  0.2134402294485239  0.6133919352020116  0.0642483630024307
  0.0787324209071624  0.7637095164712474  0.9423245066222015
  0.1434627570636842  0.8732154672622781  0.0371360416523991
  0.2337963977252004  0.8695188976939240  0.9225959567709890
  0.7367705845775505  0.1014981108222060  0.9867978760907011
  0.7290504004757007  0.2213780601667113  0.0981049126279493
  0.5989225781404770  0.2499516052355888  0.9946770899754424
  0.9407750717486432  0.2905015583600656  0.9853838293785622
  0.8096796699645703  0.4276617725984704  0.9896492423334571
  0.8200668811821331  0.3129924910488255  0.8882556461159908
  0.7414995050833185  0.2143351698972965  0.6056434785434189
  0.7572122039838731  0.1038814820223821  0.4900836484446311
  0.8897835325134785  0.2533151850103174  0.5139031059269742
  0.6799319547032584  0.4288637047411636  0.4988039326251571
  0.6883396718856017  0.3208601473989222  0.3942536757714997
  0.5513283795192655  0.2915399166806246  0.4824864494696546
  0.2523053310180540  0.6008782096590668  0.4987317984460577
  0.2484737047236441  0.7273953884288101  0.6067812745216321
  0.1114461307113389  0.7466383376805833  0.5062603644692799
  0.4515606532158092  0.7934605963492704  0.4861193946312735
  0.3177457566131822  0.9281344102815100  0.4905112723096332
  0.3242755076685911  0.8078477850729967  0.3919452553627336
 
  0.00000000E+00  0.00000000E+00  0.00000000E+00
  0.00000000E+00  0.00000000E+00  0.00000000E+00
  0.00000000E+00  0.00000000E+00  0.00000000E+00
  0.00000000E+00  0.00000000E+00  0.00000000E+00
  0.00000000E+00  0.00000000E+00  0.00000000E+00
  0.00000000E+00  0.00000000E+00  0.00000000E+00
  0.00000000E+00  0.00000000E+00  0.00000000E+00
  0.00000000E+00  0.00000000E+00  0.00000000E+00
  0.00000000E+00  0.00000000E+00  0.00000000E+00
  0.00000000E+00  0.00000000E+00  0.00000000E+00
  0.00000000E+00  0.00000000E+00  0.00000000E+00
  0.00000000E+00  0.00000000E+00  0.00000000E+00
  0.00000000E+00  0.00000000E+00  0.00000000E+00
  0.00000000E+00  0.00000000E+00  0.00000000E+00
  0.00000000E+00  0.00000000E+00  0.00000000E+00
  0.00000000E+00  0.00000000E+00  0.00000000E+00
  0.00000000E+00  0.00000000E+00  0.00000000E+00
  0.00000000E+00  0.00000000E+00  0.00000000E+00
  0.00000000E+00  0.00000000E+00  0.00000000E+00
  0.00000000E+00  0.00000000E+00  0.00000000E+00
  0.00000000E+00  0.00000000E+00  0.00000000E+00
  0.00000000E+00  0.00000000E+00  0.00000000E+00
  0.00000000E+00  0.00000000E+00  0.00000000E+00
  0.00000000E+00  0.00000000E+00  0.00000000E+00
  0.00000000E+00  0.00000000E+00  0.00000000E+00
  0.00000000E+00  0.00000000E+00  0.00000000E+00
  0.00000000E+00  0.00000000E+00  0.00000000E+00
  0.00000000E+00  0.00000000E+00  0.00000000E+00
  0.00000000E+00  0.00000000E+00  0.00000000E+00
  0.00000000E+00  0.00000000E+00  0.00000000E+00
  0.00000000E+00  0.00000000E+00  0.00000000E+00
  0.00000000E+00  0.00000000E+00  0.00000000E+00
  0.00000000E+00  0.00000000E+00  0.00000000E+00
  0.00000000E+00  0.00000000E+00  0.00000000E+00
  0.00000000E+00  0.00000000E+00  0.00000000E+00
  0.00000000E+00  0.00000000E+00  0.00000000E+00
  0.00000000E+00  0.00000000E+00  0.00000000E+00
  0.00000000E+00  0.00000000E+00  0.00000000E+00
  0.00000000E+00  0.00000000E+00  0.00000000E+00
  0.00000000E+00  0.00000000E+00  0.00000000E+00
  0.00000000E+00  0.00000000E+00  0.00000000E+00
  0.00000000E+00  0.00000000E+00  0.00000000E+00
  0.00000000E+00  0.00000000E+00  0.00000000E+00
  0.00000000E+00  0.00000000E+00  0.00000000E+00
  0.00000000E+00  0.00000000E+00  0.00000000E+00
  0.00000000E+00  0.00000000E+00  0.00000000E+00
  0.00000000E+00  0.00000000E+00  0.00000000E+00
  0.00000000E+00  0.00000000E+00  0.00000000E+00
