MAPbI3                                  
   1.00000000000000     
    10.2565329291600733    0.0956715486278143   -0.0517472892640325
     0.0810924703702737    8.3591194131559039   -0.2143819129455354
    -0.0662445895048365   -0.3128080905500574   12.6735554798270496
   Pb   I    C    N    H 
     4    12     4     4    24
Direct
  0.2763266424246251  0.2423307346383591  0.2576732180040255
  0.2882920880120937  0.2336864619252714  0.7493675308893503
  0.7931929059991296  0.7308039941775485  0.2506838160250157
  0.7766085550248712  0.7450151676401185  0.7579892488678129
  0.0596800156768740  0.9037518200348285  0.2372401710258711
  0.9616763636467396  0.0348370996284053  0.7794112766310128
  0.2746289597112850  0.2270561847810015  0.0044974765172634
  0.2004140789615063  0.2201965971559340  0.5048625192615638
  0.4605368997047858  0.5324334336593489  0.2797009603132237
  0.5502429652175969  0.4159556868509252  0.7340248387575186
  0.5259172949303909  0.0223139883963855  0.2822262667310672
  0.9367812665761230  0.3992960566278288  0.2435837623397668
  0.0265554081010020  0.5250177355147302  0.7818390386136581
  0.4419853478510795  0.9088147851554659  0.7415581390753292
  0.7057150475069540  0.7227468180590723  0.0057117293444649
  0.7758868302634385  0.7248365991963279  0.5045234436348283
  0.3080362787861927  0.7237710208691630  0.0111351092290789
  0.6907245111208622  0.2245087237169879  0.0136695199339846
  0.8006081714871311  0.2196603930743672  0.5146771061071945
  0.1965363668202220  0.7177408307037189  0.5178818446405717
  0.1826915154887853  0.8022472239305199  0.9753962159231789
  0.8143152567471026  0.3019211719339425  0.9807797392870250
  0.6783620264922909  0.3013879013214911  0.4757085179293067
  0.3154458089455985  0.8016345303997651  0.4814139596063867
  0.3553659211917943  0.8049725871102943  0.0692724971925475
  0.3704456228463536  0.7017574753887813  0.9424465300663765
  0.2845473022481548  0.6115268200036416  0.0463893118002165
  0.1352784081652380  0.7319854487019245  0.9173632842359818
  0.1207011687887463  0.8223720865060450  0.0392533517872532
  0.1997588041255991  0.9132040285336704  0.9463092308133514
  0.7159306516806163  0.1082674146685166  0.0446915769434634
  0.6440908004565694  0.3025375180284444  0.0745300473254514
  0.6268374990310926  0.2100930037811600  0.9444794470998756
  0.8774877853239247  0.3165244266720164  0.0450638865832116
  0.7947897244061018  0.4154941034690107  0.9550139046522067
  0.8612042843373227  0.2341860721278408  0.9208507151132747
  0.8472126844334152  0.2996403175793020  0.5739771805110880
  0.7734952615408400  0.1082018225632103  0.5492475364613604
  0.8654479960605146  0.1957458141927875  0.4476830495351783
  0.6989145985413923  0.4109650179552213  0.4460522329702837
  0.6313731644798447  0.2315378174859286  0.4172133600311088
  0.6146685686539389  0.3248945214026603  0.5380662332136771
  0.2273954382369840  0.6024355272468503  0.5473945109636553
  0.1505864243665881  0.7928027410316376  0.5806050083088610
  0.1297958887902599  0.7007870141229973  0.4506725906985058
  0.3809246901910289  0.8195263728812618  0.5438230594018404
  0.2907457082293237  0.9141817225409876  0.4561346322345086
  0.3618429983776780  0.7360913666143002  0.4202593733682988
 
  0.00000000E+00  0.00000000E+00  0.00000000E+00
  0.00000000E+00  0.00000000E+00  0.00000000E+00
  0.00000000E+00  0.00000000E+00  0.00000000E+00
  0.00000000E+00  0.00000000E+00  0.00000000E+00
  0.00000000E+00  0.00000000E+00  0.00000000E+00
  0.00000000E+00  0.00000000E+00  0.00000000E+00
  0.00000000E+00  0.00000000E+00  0.00000000E+00
  0.00000000E+00  0.00000000E+00  0.00000000E+00
  0.00000000E+00  0.00000000E+00  0.00000000E+00
  0.00000000E+00  0.00000000E+00  0.00000000E+00
  0.00000000E+00  0.00000000E+00  0.00000000E+00
  0.00000000E+00  0.00000000E+00  0.00000000E+00
  0.00000000E+00  0.00000000E+00  0.00000000E+00
  0.00000000E+00  0.00000000E+00  0.00000000E+00
  0.00000000E+00  0.00000000E+00  0.00000000E+00
  0.00000000E+00  0.00000000E+00  0.00000000E+00
  0.00000000E+00  0.00000000E+00  0.00000000E+00
  0.00000000E+00  0.00000000E+00  0.00000000E+00
  0.00000000E+00  0.00000000E+00  0.00000000E+00
  0.00000000E+00  0.00000000E+00  0.00000000E+00
  0.00000000E+00  0.00000000E+00  0.00000000E+00
  0.00000000E+00  0.00000000E+00  0.00000000E+00
  0.00000000E+00  0.00000000E+00  0.00000000E+00
  0.00000000E+00  0.00000000E+00  0.00000000E+00
  0.00000000E+00  0.00000000E+00  0.00000000E+00
  0.00000000E+00  0.00000000E+00  0.00000000E+00
  0.00000000E+00  0.00000000E+00  0.00000000E+00
  0.00000000E+00  0.00000000E+00  0.00000000E+00
  0.00000000E+00  0.00000000E+00  0.00000000E+00
  0.00000000E+00  0.00000000E+00  0.00000000E+00
  0.00000000E+00  0.00000000E+00  0.00000000E+00
  0.00000000E+00  0.00000000E+00  0.00000000E+00
  0.00000000E+00  0.00000000E+00  0.00000000E+00
  0.00000000E+00  0.00000000E+00  0.00000000E+00
  0.00000000E+00  0.00000000E+00  0.00000000E+00
  0.00000000E+00  0.00000000E+00  0.00000000E+00
  0.00000000E+00  0.00000000E+00  0.00000000E+00
  0.00000000E+00  0.00000000E+00  0.00000000E+00
  0.00000000E+00  0.00000000E+00  0.00000000E+00
  0.00000000E+00  0.00000000E+00  0.00000000E+00
  0.00000000E+00  0.00000000E+00  0.00000000E+00
  0.00000000E+00  0.00000000E+00  0.00000000E+00
  0.00000000E+00  0.00000000E+00  0.00000000E+00
  0.00000000E+00  0.00000000E+00  0.00000000E+00
  0.00000000E+00  0.00000000E+00  0.00000000E+00
  0.00000000E+00  0.00000000E+00  0.00000000E+00
  0.00000000E+00  0.00000000E+00  0.00000000E+00
  0.00000000E+00  0.00000000E+00  0.00000000E+00
