MAPbI3                                  
   1.00000000000000     
     7.2266496090515497   -0.0012166392087828    0.0050786457828714
    -0.0033930318975215    9.5755611340900799    0.3174317132443574
    -0.0035533476914238    0.4275380969178758   13.9255391112211733
   Pb   I    C    N    H 
     4    12     4     4    24
Direct
  0.2638018911866628  0.2475068781686663  0.2223111417791685
  0.2352756910070869  0.2473867526250937  0.7231393032506092
  0.7345124832658648  0.7496261732721544  0.2219150234372592
  0.7649537236546290  0.7490885061591245  0.7217216009331566
  0.1136436987680805  0.9288320658622787  0.2143637387232686
  0.8947088849076572  0.0593466883423871  0.7934647119069500
  0.3067412620959220  0.2571562090828506  0.9960698173276261
  0.1921378881186822  0.2564151238019640  0.4966425830101553
  0.4002249089089673  0.5538175726988348  0.2957453097474996
  0.6103550839569205  0.4337352302096047  0.7132267379771973
  0.6052283123315009  0.0602907081348508  0.2928217491890149
  0.8911631896048031  0.4349949295636538  0.2126399295112013
  0.1011594384587633  0.5551623727072141  0.7953619082335218
  0.3863835494258029  0.9290302558472464  0.7143357409985690
  0.6980569970482189  0.7589261649499142  0.9949328107743705
  0.8020897823553876  0.7589062635968173  0.4948510121383192
  0.2179787989564775  0.6767137855465670  0.0292181735811603
  0.7873548959171950  0.1807932860002267  0.0290478061764075
  0.7104896530183000  0.1778864192355295  0.5291659043200203
  0.2823805364400814  0.6763939139553817  0.5292348779302193
  0.2161699973710193  0.8195820583404706  0.9771270111158822
  0.7889797429509254  0.3233763100085895  0.9766331220865230
  0.7109515125265090  0.3208234184067428  0.4771588079206733
  0.2853351113361010  0.8191675321854234  0.4769850372422082
  0.2859280454565507  0.6855075542344606  0.0983834748434391
  0.2931894446554138  0.6055216551924102  0.9854626847047495
  0.0750682775141614  0.6426084841413340  0.0395543085311121
  0.1403639879337607  0.8213360826695401  0.9143643898676059
  0.1609598883714864  0.8920337242898897  0.0211913838595878
  0.3506105280371460  0.8498088106569671  0.9600356959094546
  0.7145143309377169  0.1086265512642651  0.9850252944740837
  0.9303927983300432  0.1477943033377953  0.0405663487272070
  0.7171274723573982  0.1894774910731358  0.0976167590255205
  0.8689413744345688  0.3264220146557918  0.9151691699483264
  0.8396478559196551  0.3965924910962202  0.0215330170323378
  0.6551389584091758  0.3519646249689184  0.9573860579517365
  0.5670668847307069  0.1447836189575272  0.5390605496300034
  0.7853031342693425  0.1061120798495896  0.4856868952671099
  0.7779752907249049  0.1861520528938494  0.5985101662045895
  0.6582473367976198  0.3938073185393817  0.5216101457134522
  0.8457410217213480  0.3494612083768812  0.4596200037864360
  0.6339277789235265  0.3240523589406554  0.4147162012244006
  0.2079814547291089  0.6050176449995337  0.4852659386450825
  0.4250791270469993  0.6423219850562468  0.5403559227459452
  0.2131630260554830  0.6854670285523343  0.5980534318042570
  0.3626851516449538  0.8208137165166293  0.4146981705329169
  0.3395179758880449  0.8917212606656997  0.5213048772681419
  0.1513538214993758  0.8493333203692672  0.4590632529915999
 
  0.00000000E+00  0.00000000E+00  0.00000000E+00
  0.00000000E+00  0.00000000E+00  0.00000000E+00
  0.00000000E+00  0.00000000E+00  0.00000000E+00
  0.00000000E+00  0.00000000E+00  0.00000000E+00
  0.00000000E+00  0.00000000E+00  0.00000000E+00
  0.00000000E+00  0.00000000E+00  0.00000000E+00
  0.00000000E+00  0.00000000E+00  0.00000000E+00
  0.00000000E+00  0.00000000E+00  0.00000000E+00
  0.00000000E+00  0.00000000E+00  0.00000000E+00
  0.00000000E+00  0.00000000E+00  0.00000000E+00
  0.00000000E+00  0.00000000E+00  0.00000000E+00
  0.00000000E+00  0.00000000E+00  0.00000000E+00
  0.00000000E+00  0.00000000E+00  0.00000000E+00
  0.00000000E+00  0.00000000E+00  0.00000000E+00
  0.00000000E+00  0.00000000E+00  0.00000000E+00
  0.00000000E+00  0.00000000E+00  0.00000000E+00
  0.00000000E+00  0.00000000E+00  0.00000000E+00
  0.00000000E+00  0.00000000E+00  0.00000000E+00
  0.00000000E+00  0.00000000E+00  0.00000000E+00
  0.00000000E+00  0.00000000E+00  0.00000000E+00
  0.00000000E+00  0.00000000E+00  0.00000000E+00
  0.00000000E+00  0.00000000E+00  0.00000000E+00
  0.00000000E+00  0.00000000E+00  0.00000000E+00
  0.00000000E+00  0.00000000E+00  0.00000000E+00
  0.00000000E+00  0.00000000E+00  0.00000000E+00
  0.00000000E+00  0.00000000E+00  0.00000000E+00
  0.00000000E+00  0.00000000E+00  0.00000000E+00
  0.00000000E+00  0.00000000E+00  0.00000000E+00
  0.00000000E+00  0.00000000E+00  0.00000000E+00
  0.00000000E+00  0.00000000E+00  0.00000000E+00
  0.00000000E+00  0.00000000E+00  0.00000000E+00
  0.00000000E+00  0.00000000E+00  0.00000000E+00
  0.00000000E+00  0.00000000E+00  0.00000000E+00
  0.00000000E+00  0.00000000E+00  0.00000000E+00
  0.00000000E+00  0.00000000E+00  0.00000000E+00
  0.00000000E+00  0.00000000E+00  0.00000000E+00
  0.00000000E+00  0.00000000E+00  0.00000000E+00
  0.00000000E+00  0.00000000E+00  0.00000000E+00
  0.00000000E+00  0.00000000E+00  0.00000000E+00
  0.00000000E+00  0.00000000E+00  0.00000000E+00
  0.00000000E+00  0.00000000E+00  0.00000000E+00
  0.00000000E+00  0.00000000E+00  0.00000000E+00
  0.00000000E+00  0.00000000E+00  0.00000000E+00
  0.00000000E+00  0.00000000E+00  0.00000000E+00
  0.00000000E+00  0.00000000E+00  0.00000000E+00
  0.00000000E+00  0.00000000E+00  0.00000000E+00
  0.00000000E+00  0.00000000E+00  0.00000000E+00
  0.00000000E+00  0.00000000E+00  0.00000000E+00
