MAPbI3                                  
   1.00000000000000     
    10.4632913630696809    0.1405841030557012   -0.0513333895582427
     0.1174011539992846    8.3508999834581115   -0.1842106467914729
    -0.0681681575402486   -0.2703191699968669   12.5524433033231606
   Pb   I    C    N    H 
     4    12     4     4    24
Direct
  0.2837699810088712  0.2444528361483677  0.2603626924279750
  0.2990269120673168  0.2376996302624678  0.7477323880493943
  0.8023553028284925  0.7342396265522663  0.2480618253206628
  0.7843778186459476  0.7458470072994008  0.7599395766765394
  0.0623721603994781  0.9059745739959201  0.2337582621996293
  0.9628514896550251  0.0333981316185270  0.7840532885081005
  0.2850719598536494  0.2262831415657922  0.0038563238888580
  0.1928596392543989  0.2213201772099049  0.5055908310343405
  0.4625775496157673  0.5322225328805652  0.2840758597675334
  0.5540061214048544  0.4181889875373921  0.7308220005333843
  0.5239425316038828  0.0198790981563170  0.2919736403917953
  0.9384686957514247  0.4004763085654300  0.2386820465510026
  0.0243807466133069  0.5212614961182521  0.7922263703395033
  0.4441037037065463  0.9098614145500246  0.7371534860764892
  0.6972518869902623  0.7239143140113652  0.0055109917067580
  0.7872680495687275  0.7227459217628008  0.5034055879583976
  0.3111503171305755  0.7234438021066060  0.0111607131362854
  0.6843581804109520  0.2212700675198721  0.0158980202588725
  0.8025951354565106  0.2190101059051876  0.5150197272197319
  0.1922803849867160  0.7166741892476118  0.5207751933113444
  0.1896046736917328  0.8038273586642387  0.9727523247563686
  0.8027728426778939  0.3009598657251151  0.9795746284541368
  0.6854939955670122  0.3043232131279955  0.4722879076864477
  0.3058807607651591  0.8015243647111298  0.4801518474408826
  0.3578274076015012  0.8051816662618982  0.0687081757779052
  0.3729941309059846  0.6975114178054314  0.9426614363979964
  0.2865860742529011  0.6129904337192555  0.0486374230021439
  0.1420631378379329  0.7321981611572643  0.9161134539763864
  0.1287187181224018  0.8287232199029385  0.0366655000491987
  0.2078223549009134  0.9125280976596462  0.9405336207455020
  0.7124948208925576  0.1059371284797847  0.0479535487507417
  0.6385603495481530  0.2992216419954878  0.0772836556373393
  0.6202782948773610  0.2041840956401598  0.9473312374037850
  0.8661276490054818  0.3182493030684068  0.0431662453519557
  0.7805053273146034  0.4136424903460083  0.9524704011218111
  0.8490820481098030  0.2331802186115527  0.9193324446477468
  0.8488333176965831  0.2989956518486574  0.5739252130937753
  0.7727250700673838  0.1102118663115378  0.5517785224080126
  0.8671885659040670  0.1896247461881879  0.4487779045594624
  0.7087623666817263  0.4110674692862307  0.4397231383490315
  0.6383657104393450  0.2337383199128779  0.4147815535483303
  0.6224677764958020  0.3335080728244663  0.5340314490516528
  0.2255882726211842  0.6026716217693378  0.5518985521616813
  0.1474586045482623  0.7926485018090585  0.5837016590737207
  0.1252309746413198  0.6963929334121172  0.4545584943786774
  0.3715884112319779  0.8224330465044333  0.5415246271902977
  0.2787211430121920  0.9128825766657416  0.4532340869883902
  0.3511906336360806  0.7351751535769877  0.4187301226400827
 
  0.00000000E+00  0.00000000E+00  0.00000000E+00
  0.00000000E+00  0.00000000E+00  0.00000000E+00
  0.00000000E+00  0.00000000E+00  0.00000000E+00
  0.00000000E+00  0.00000000E+00  0.00000000E+00
  0.00000000E+00  0.00000000E+00  0.00000000E+00
  0.00000000E+00  0.00000000E+00  0.00000000E+00
  0.00000000E+00  0.00000000E+00  0.00000000E+00
  0.00000000E+00  0.00000000E+00  0.00000000E+00
  0.00000000E+00  0.00000000E+00  0.00000000E+00
  0.00000000E+00  0.00000000E+00  0.00000000E+00
  0.00000000E+00  0.00000000E+00  0.00000000E+00
  0.00000000E+00  0.00000000E+00  0.00000000E+00
  0.00000000E+00  0.00000000E+00  0.00000000E+00
  0.00000000E+00  0.00000000E+00  0.00000000E+00
  0.00000000E+00  0.00000000E+00  0.00000000E+00
  0.00000000E+00  0.00000000E+00  0.00000000E+00
  0.00000000E+00  0.00000000E+00  0.00000000E+00
  0.00000000E+00  0.00000000E+00  0.00000000E+00
  0.00000000E+00  0.00000000E+00  0.00000000E+00
  0.00000000E+00  0.00000000E+00  0.00000000E+00
  0.00000000E+00  0.00000000E+00  0.00000000E+00
  0.00000000E+00  0.00000000E+00  0.00000000E+00
  0.00000000E+00  0.00000000E+00  0.00000000E+00
  0.00000000E+00  0.00000000E+00  0.00000000E+00
  0.00000000E+00  0.00000000E+00  0.00000000E+00
  0.00000000E+00  0.00000000E+00  0.00000000E+00
  0.00000000E+00  0.00000000E+00  0.00000000E+00
  0.00000000E+00  0.00000000E+00  0.00000000E+00
  0.00000000E+00  0.00000000E+00  0.00000000E+00
  0.00000000E+00  0.00000000E+00  0.00000000E+00
  0.00000000E+00  0.00000000E+00  0.00000000E+00
  0.00000000E+00  0.00000000E+00  0.00000000E+00
  0.00000000E+00  0.00000000E+00  0.00000000E+00
  0.00000000E+00  0.00000000E+00  0.00000000E+00
  0.00000000E+00  0.00000000E+00  0.00000000E+00
  0.00000000E+00  0.00000000E+00  0.00000000E+00
  0.00000000E+00  0.00000000E+00  0.00000000E+00
  0.00000000E+00  0.00000000E+00  0.00000000E+00
  0.00000000E+00  0.00000000E+00  0.00000000E+00
  0.00000000E+00  0.00000000E+00  0.00000000E+00
  0.00000000E+00  0.00000000E+00  0.00000000E+00
  0.00000000E+00  0.00000000E+00  0.00000000E+00
  0.00000000E+00  0.00000000E+00  0.00000000E+00
  0.00000000E+00  0.00000000E+00  0.00000000E+00
  0.00000000E+00  0.00000000E+00  0.00000000E+00
  0.00000000E+00  0.00000000E+00  0.00000000E+00
  0.00000000E+00  0.00000000E+00  0.00000000E+00
  0.00000000E+00  0.00000000E+00  0.00000000E+00
