MAPbI3                                  
   1.00000000000000     
    11.4399600822453742    0.3579953187233056   -0.0474246060138260
     0.2862936900214307    8.2850646966980079   -0.1028532303225920
    -0.0789874369736136   -0.1654941689131090   11.8395112284438913
   Pb   I    C    N    H 
     4    12     4     4    24
Direct
  0.3032442193209692  0.2353774702800185  0.2748243522622225
  0.3409833317886256  0.2629404228493361  0.7390641574645209
  0.8426714906511404  0.7560427741854476  0.2403095088738806
  0.8030142497227326  0.7426978800361891  0.7751740471721609
  0.0872572524819301  0.9059882303150402  0.2269042006134023
  0.9536733090131175  0.0317452718602686  0.8042619995077145
  0.2970871949745328  0.2268097878703413 -0.0000056362942404
  0.1721226360912816  0.2298942123841121  0.5167591294419611
  0.4526898632382659  0.5252783958712214  0.3043883156624611
  0.5810318494557700  0.4229006929120722  0.7198005413551719
  0.5195525515337599  0.0077219617982991  0.3248097579184980
  0.9356373565913146  0.4027830219456358  0.2251561605048904
  0.0194872456475287  0.5147239704684566  0.8215513699326837
  0.4451057086924313  0.9160728395177222  0.7276341407966034
  0.6742519430635040  0.7334938249623151  0.0178094588608999
  0.8043143383852771  0.7215627213716960  0.5013470634615591
  0.3192770092344244  0.7174536610766905  0.0054912568293639
  0.6657768249114089  0.2228933139811773  0.0282378225967652
  0.8143351882362475  0.2128160073616707  0.5093444394536527
  0.1768366220864652  0.7213050608359050  0.5399064835266477
  0.2123685433099327  0.8038097733380091  0.9539644456930191
  0.7659053011193447  0.3027396571592019  0.9764440189573027
  0.7135448139381084  0.3007657794457563  0.4488841459479085
  0.2744254421032834  0.8011774906470780  0.4839143985941654
  0.3674575996004739  0.8060888701195899  0.0537012406970373
  0.3737283721988613  0.6631793225081472  0.9375205493533271
  0.2905018662710004  0.6247494645628556  0.0606788531902290
  0.1613812810683852  0.7250083735504353  0.9082706788381545
  0.1600041011196033  0.8579044196851184  0.0173231309165920
  0.2355121933243838  0.8936389449761594  0.9016328748977928
  0.7010420424233722  0.1185091716539199  0.0749727507315614
  0.6191796800701730  0.3109463460580412  0.0847399360129977
  0.6075310721064200  0.1838687508512877  0.9606001848148146
  0.8239414574461161  0.3398186953978009  0.0387708393864930
  0.7352483606822341  0.4041711211535789  0.9338778839460029
  0.8130187445580983  0.2251850890409842  0.9202941462658412
  0.8654447404022747  0.3024411893313358  0.5531536548792476
  0.7787932326711212  0.1318494558476559  0.5694273754641067
  0.8684099217239168  0.1445518228998648  0.4468486767794768
  0.7439392637381458  0.3761038003422503  0.3893867221383615
  0.6592761734438324  0.2207517432496921  0.4084994700734647
  0.6625839372538486  0.3704265613194003  0.5059741780431302
  0.2141761048131636  0.6159897614757635  0.5843021225380364
  0.1334511963385062  0.8086808743116981  0.5990750089909381
  0.1149995150899653  0.6837575677256230  0.4749534016259807
  0.3352900991140224  0.8378592537270635  0.5437244080568255
  0.2419249953416970  0.9033025924595920  0.4430908388730042
  0.3185717636089749  0.7239185852785432  0.4255534943534088
 
  0.00000000E+00  0.00000000E+00  0.00000000E+00
  0.00000000E+00  0.00000000E+00  0.00000000E+00
  0.00000000E+00  0.00000000E+00  0.00000000E+00
  0.00000000E+00  0.00000000E+00  0.00000000E+00
  0.00000000E+00  0.00000000E+00  0.00000000E+00
  0.00000000E+00  0.00000000E+00  0.00000000E+00
  0.00000000E+00  0.00000000E+00  0.00000000E+00
  0.00000000E+00  0.00000000E+00  0.00000000E+00
  0.00000000E+00  0.00000000E+00  0.00000000E+00
  0.00000000E+00  0.00000000E+00  0.00000000E+00
  0.00000000E+00  0.00000000E+00  0.00000000E+00
  0.00000000E+00  0.00000000E+00  0.00000000E+00
  0.00000000E+00  0.00000000E+00  0.00000000E+00
  0.00000000E+00  0.00000000E+00  0.00000000E+00
  0.00000000E+00  0.00000000E+00  0.00000000E+00
  0.00000000E+00  0.00000000E+00  0.00000000E+00
  0.00000000E+00  0.00000000E+00  0.00000000E+00
  0.00000000E+00  0.00000000E+00  0.00000000E+00
  0.00000000E+00  0.00000000E+00  0.00000000E+00
  0.00000000E+00  0.00000000E+00  0.00000000E+00
  0.00000000E+00  0.00000000E+00  0.00000000E+00
  0.00000000E+00  0.00000000E+00  0.00000000E+00
  0.00000000E+00  0.00000000E+00  0.00000000E+00
  0.00000000E+00  0.00000000E+00  0.00000000E+00
  0.00000000E+00  0.00000000E+00  0.00000000E+00
  0.00000000E+00  0.00000000E+00  0.00000000E+00
  0.00000000E+00  0.00000000E+00  0.00000000E+00
  0.00000000E+00  0.00000000E+00  0.00000000E+00
  0.00000000E+00  0.00000000E+00  0.00000000E+00
  0.00000000E+00  0.00000000E+00  0.00000000E+00
  0.00000000E+00  0.00000000E+00  0.00000000E+00
  0.00000000E+00  0.00000000E+00  0.00000000E+00
  0.00000000E+00  0.00000000E+00  0.00000000E+00
  0.00000000E+00  0.00000000E+00  0.00000000E+00
  0.00000000E+00  0.00000000E+00  0.00000000E+00
  0.00000000E+00  0.00000000E+00  0.00000000E+00
  0.00000000E+00  0.00000000E+00  0.00000000E+00
  0.00000000E+00  0.00000000E+00  0.00000000E+00
  0.00000000E+00  0.00000000E+00  0.00000000E+00
  0.00000000E+00  0.00000000E+00  0.00000000E+00
  0.00000000E+00  0.00000000E+00  0.00000000E+00
  0.00000000E+00  0.00000000E+00  0.00000000E+00
  0.00000000E+00  0.00000000E+00  0.00000000E+00
  0.00000000E+00  0.00000000E+00  0.00000000E+00
  0.00000000E+00  0.00000000E+00  0.00000000E+00
  0.00000000E+00  0.00000000E+00  0.00000000E+00
  0.00000000E+00  0.00000000E+00  0.00000000E+00
  0.00000000E+00  0.00000000E+00  0.00000000E+00
