MAPbI3                                  
   1.00000000000000     
     6.5373084115042692   -0.0075754813529297    0.0095582468784677
    -0.0138358306332330    9.9843449692000270    0.7335481450558178
     0.0036545218735874    0.9581724265723071   15.9022630487557066
   Pb   I    C    N    H 
     4    12     4     4    24
Direct
  0.2361403091135165  0.2486147924570333  0.2482822230533656
  0.2659847799569872  0.2513478377667410  0.7483335435712779
  0.7121485170684575  0.7490415799382448  0.2163837608253770
  0.7882348544679922  0.7527110754688117  0.7168962326219663
  0.1505199761435993  0.8971117681558808  0.2161712128067421
  0.8548512467258851  0.0987912562127071  0.8109026556472548
  0.3576242950345403  0.3123422282762138  0.0618827271139668
  0.1416293115919748  0.3147534800695544  0.5624416285179810
  0.3768693621199732  0.5126868827581128  0.3233233122641991
  0.6296318104086396  0.4808572950259398  0.6756553020182596
  0.6461128409925532  0.0991436401847889  0.3114196260778476
  0.8707933261194434  0.4780580713019180  0.1757120830669668
  0.1214630969279457  0.5125847687547120  0.8242622428444671
  0.3498991717401268  0.8983032046566866  0.7157819430235376
  0.6625289396892318  0.8262071652287664  0.0236333888153953
  0.8388854616011182  0.8309017311053125  0.5244799979858396
  0.1686678089979268  0.6871071381891153  0.0072006012267966
  0.8514972511357972  0.1648799810733665  0.0455242978047179
  0.6472294434574749  0.1686072013350627  0.5451983217259397
  0.3315192320186268  0.6875749322762352  0.5070279870585498
  0.1756692730464925  0.8120812344071413  0.9429162493393304
  0.8551432531449036  0.2949756528804129  0.9866495754124424
  0.6441259313329560  0.2985377637704350  0.4862416596729751
  0.3255251964475104  0.8129005286324587  0.4430669661837713
  0.1680588346555968  0.7188559625433164  0.0701286499203920
  0.3031956395101373  0.6264346337261523  0.9985362711149348
  0.0289811323656137  0.6322749182228871  0.9969857275120579
  0.1981129354873409  0.7898643781826484  0.8819103612420065
  0.0410945190196198  0.8662623724477012  0.9439255480782295
  0.2980400058921849  0.8716061040432096  0.9564240260924193
  0.7154073564560074  0.1089174739383385  0.0318952637163804
  0.9897861092144153  0.1087309865432918  0.0348367056853701
  0.8459902076163477  0.1878424810941738  0.1106086681065167
  0.8478683075112362  0.2762169789331179  0.9242446690139700
  0.9895111852011560  0.3472418618962408  0.9939658809950207
  0.7315727693331566  0.3537754574983403  0.9989815686127655
  0.5087096577602966  0.1121967411024737  0.5346941910784894
  0.7830860486492033  0.1127604887345100  0.5316110732166573
  0.6523794019594795  0.1917470767920456  0.6102566022516056
  0.5096329849260841  0.3503262356652180  0.4936237560189820
  0.7675600943317196  0.3577654806739033  0.4985121720840779
  0.6517433861942856  0.2797335740906129  0.4238607716717471
  0.1965846134010578  0.6269606183749794  0.4983590696417153
  0.4708050803495929  0.6328243558600855  0.4965025042108999
  0.3323482482448243  0.7187412732431925  0.5701059937013068
  0.3029055168581156  0.7911166002086828  0.3819899324883632
  0.4604231124696265  0.8671507133091045  0.4440659046688586
  0.2035101633091497  0.8722280229500274  0.4569351501983036
 
  0.00000000E+00  0.00000000E+00  0.00000000E+00
  0.00000000E+00  0.00000000E+00  0.00000000E+00
  0.00000000E+00  0.00000000E+00  0.00000000E+00
  0.00000000E+00  0.00000000E+00  0.00000000E+00
  0.00000000E+00  0.00000000E+00  0.00000000E+00
  0.00000000E+00  0.00000000E+00  0.00000000E+00
  0.00000000E+00  0.00000000E+00  0.00000000E+00
  0.00000000E+00  0.00000000E+00  0.00000000E+00
  0.00000000E+00  0.00000000E+00  0.00000000E+00
  0.00000000E+00  0.00000000E+00  0.00000000E+00
  0.00000000E+00  0.00000000E+00  0.00000000E+00
  0.00000000E+00  0.00000000E+00  0.00000000E+00
  0.00000000E+00  0.00000000E+00  0.00000000E+00
  0.00000000E+00  0.00000000E+00  0.00000000E+00
  0.00000000E+00  0.00000000E+00  0.00000000E+00
  0.00000000E+00  0.00000000E+00  0.00000000E+00
  0.00000000E+00  0.00000000E+00  0.00000000E+00
  0.00000000E+00  0.00000000E+00  0.00000000E+00
  0.00000000E+00  0.00000000E+00  0.00000000E+00
  0.00000000E+00  0.00000000E+00  0.00000000E+00
  0.00000000E+00  0.00000000E+00  0.00000000E+00
  0.00000000E+00  0.00000000E+00  0.00000000E+00
  0.00000000E+00  0.00000000E+00  0.00000000E+00
  0.00000000E+00  0.00000000E+00  0.00000000E+00
  0.00000000E+00  0.00000000E+00  0.00000000E+00
  0.00000000E+00  0.00000000E+00  0.00000000E+00
  0.00000000E+00  0.00000000E+00  0.00000000E+00
  0.00000000E+00  0.00000000E+00  0.00000000E+00
  0.00000000E+00  0.00000000E+00  0.00000000E+00
  0.00000000E+00  0.00000000E+00  0.00000000E+00
  0.00000000E+00  0.00000000E+00  0.00000000E+00
  0.00000000E+00  0.00000000E+00  0.00000000E+00
  0.00000000E+00  0.00000000E+00  0.00000000E+00
  0.00000000E+00  0.00000000E+00  0.00000000E+00
  0.00000000E+00  0.00000000E+00  0.00000000E+00
  0.00000000E+00  0.00000000E+00  0.00000000E+00
  0.00000000E+00  0.00000000E+00  0.00000000E+00
  0.00000000E+00  0.00000000E+00  0.00000000E+00
  0.00000000E+00  0.00000000E+00  0.00000000E+00
  0.00000000E+00  0.00000000E+00  0.00000000E+00
  0.00000000E+00  0.00000000E+00  0.00000000E+00
  0.00000000E+00  0.00000000E+00  0.00000000E+00
  0.00000000E+00  0.00000000E+00  0.00000000E+00
  0.00000000E+00  0.00000000E+00  0.00000000E+00
  0.00000000E+00  0.00000000E+00  0.00000000E+00
  0.00000000E+00  0.00000000E+00  0.00000000E+00
  0.00000000E+00  0.00000000E+00  0.00000000E+00
  0.00000000E+00  0.00000000E+00  0.00000000E+00
