MAPbI3                                  
   1.00000000000000     
     7.9089899574979219    0.0021631019737035    0.0418695969119649
     0.0021676067710938    9.4486457447627181    0.0748621338239382
     0.0606446056118183    0.1000740135650494   13.2963006632855301
   Pb   I    C    N    H 
     4    12     4     4    24
Direct
  0.2541016640293398  0.2296720943174324  0.2484545921739288
  0.2490520796399846  0.2321912798633973  0.7499502504371630
  0.7510612074696067  0.7315773969587859  0.2493967457270665
  0.7506768498568176  0.7331180587325576  0.7494003693206102
  0.0967682501403032  0.9100036535770734  0.2409896231101939
  0.9156107517416286  0.0409022877487793  0.7697015879217040
  0.2544246736909334  0.2182538608908172  0.0020305470067711
  0.2400118224459146  0.2215615837285868  0.5025966455641658
  0.4193662019849706  0.5377543848814326  0.2753064071678911
  0.5893381817990120  0.4161158036184934  0.7434731047360040
  0.5915085586735515  0.0427247886418822  0.2715566506365665
  0.9154014348281515  0.4159252202146480  0.2430231056304118
  0.0841003445147805  0.5411457736840545  0.7691514520502166
  0.4114977703959446  0.9155739089219834  0.7459441933015635
  0.7391251172256331  0.7233304579933590  0.0031678869990239
  0.7564622465099627  0.7214183477258593  0.5027475418688304
  0.2486282121723229  0.6798748688866096  0.0239197209451286
  0.7472868840810295  0.2001979024554442  0.0229805368066809
  0.7488345196890348  0.1966528680219781  0.5250840299932947
  0.2428867547837819  0.7068309581848573  0.5252216877259317
  0.1831751469574944  0.8140329624438035  0.9754484346396752
  0.8224051274882521  0.3281740826404250  0.9704912797439796
  0.6782826982179697  0.3255816457212279  0.4722775107752222
  0.3243665437393560  0.8304958826111971  0.4709561518080330
  0.3721561019847060  0.7018488709505186  0.0556144470076100
  0.2583580755726183  0.5992542432078518  0.9661957384120303
  0.1599346078807100  0.6470867690343184  0.0832334045685220
  0.0567903512692679  0.8028905813563630  0.9570999069488308
  0.1902651432703124  0.8980359739979872  0.0240932075246872
  0.2505099064775757  0.8408145615569984  0.9103062687098616
  0.7601554092819727  0.1101334336278090  0.9729745264389740
  0.8154792385829561  0.1816592883855206  0.0927961393303544
  0.6143392642995089  0.2218511085748699  0.0386691930417977
  0.9522472162583739  0.3159916707807590  0.9622424635063715
  0.8023301030691712  0.4194757371641509  0.0108251892970387
  0.7702140337247755  0.3444399538863107  0.8997993732350058
  0.6651075046813977  0.1688326106833784  0.5879570758499806
  0.7555680135358209  0.1107943152783493  0.4711401672513694
  0.8743823944307868  0.2224815770833895  0.5523099091227616
  0.6887648994966898  0.4148122513410171  0.5158224889711126
  0.7407217353899183  0.3463481169822685  0.4044686393037835
  0.5507006695086034  0.3119859771256226  0.4578764885196399
  0.2370323178218403  0.6184385785242954  0.4733738728849586
  0.3192574131072908  0.6794105762488113  0.5904946433051681
  0.1162609889249770  0.7382269535156643  0.5489018842066637
  0.4529543304496520  0.8125997420997509  0.4611435675868699
  0.3115097556278342  0.9230466554526714  0.5108839340599639
  0.2705894832775321  0.8481263806765498  0.4008554148265554
 
  0.00000000E+00  0.00000000E+00  0.00000000E+00
  0.00000000E+00  0.00000000E+00  0.00000000E+00
  0.00000000E+00  0.00000000E+00  0.00000000E+00
  0.00000000E+00  0.00000000E+00  0.00000000E+00
  0.00000000E+00  0.00000000E+00  0.00000000E+00
  0.00000000E+00  0.00000000E+00  0.00000000E+00
  0.00000000E+00  0.00000000E+00  0.00000000E+00
  0.00000000E+00  0.00000000E+00  0.00000000E+00
  0.00000000E+00  0.00000000E+00  0.00000000E+00
  0.00000000E+00  0.00000000E+00  0.00000000E+00
  0.00000000E+00  0.00000000E+00  0.00000000E+00
  0.00000000E+00  0.00000000E+00  0.00000000E+00
  0.00000000E+00  0.00000000E+00  0.00000000E+00
  0.00000000E+00  0.00000000E+00  0.00000000E+00
  0.00000000E+00  0.00000000E+00  0.00000000E+00
  0.00000000E+00  0.00000000E+00  0.00000000E+00
  0.00000000E+00  0.00000000E+00  0.00000000E+00
  0.00000000E+00  0.00000000E+00  0.00000000E+00
  0.00000000E+00  0.00000000E+00  0.00000000E+00
  0.00000000E+00  0.00000000E+00  0.00000000E+00
  0.00000000E+00  0.00000000E+00  0.00000000E+00
  0.00000000E+00  0.00000000E+00  0.00000000E+00
  0.00000000E+00  0.00000000E+00  0.00000000E+00
  0.00000000E+00  0.00000000E+00  0.00000000E+00
  0.00000000E+00  0.00000000E+00  0.00000000E+00
  0.00000000E+00  0.00000000E+00  0.00000000E+00
  0.00000000E+00  0.00000000E+00  0.00000000E+00
  0.00000000E+00  0.00000000E+00  0.00000000E+00
  0.00000000E+00  0.00000000E+00  0.00000000E+00
  0.00000000E+00  0.00000000E+00  0.00000000E+00
  0.00000000E+00  0.00000000E+00  0.00000000E+00
  0.00000000E+00  0.00000000E+00  0.00000000E+00
  0.00000000E+00  0.00000000E+00  0.00000000E+00
  0.00000000E+00  0.00000000E+00  0.00000000E+00
  0.00000000E+00  0.00000000E+00  0.00000000E+00
  0.00000000E+00  0.00000000E+00  0.00000000E+00
  0.00000000E+00  0.00000000E+00  0.00000000E+00
  0.00000000E+00  0.00000000E+00  0.00000000E+00
  0.00000000E+00  0.00000000E+00  0.00000000E+00
  0.00000000E+00  0.00000000E+00  0.00000000E+00
  0.00000000E+00  0.00000000E+00  0.00000000E+00
  0.00000000E+00  0.00000000E+00  0.00000000E+00
  0.00000000E+00  0.00000000E+00  0.00000000E+00
  0.00000000E+00  0.00000000E+00  0.00000000E+00
  0.00000000E+00  0.00000000E+00  0.00000000E+00
  0.00000000E+00  0.00000000E+00  0.00000000E+00
  0.00000000E+00  0.00000000E+00  0.00000000E+00
  0.00000000E+00  0.00000000E+00  0.00000000E+00
