MAPbI3                                  
   1.00000000000000     
     7.5981062933116998    0.0025095112849941    0.0111645160678335
     0.0016552979890552    9.5616592121454236    0.1872177178439134
     0.0074326473029111    0.2582908079891268   13.4076295124721074
   Pb   I    C    N    H 
     4    12     4     4    24
Direct
  0.2546036834807459  0.2335243179576271  0.2415397586302168
  0.2452097816358404  0.2333105530875685  0.7417324949074112
  0.7449452805243987  0.7348989952693363  0.2399809997047816
  0.7546476144113403  0.7353565789169725  0.7397519350515797
  0.1039252994473185  0.9144725091171685  0.2313994369754939
  0.9029828361554446  0.0457087274393978  0.7810078864732354
  0.2713139901703690  0.2280094695767333  0.9957596551028529
  0.2247331406832242  0.2266396138396325  0.4958002314844311
  0.4043748995233401  0.5437347726642864  0.2787713958700905
  0.5996774828278006  0.4186199052958531  0.7348339821212779
  0.5997419534670313  0.0472535046232131  0.2782592686335608
  0.9007931319634265  0.4189950217827096  0.2350106922802352
  0.0960388456575849  0.5457326231377423  0.7734574208620058
  0.3988462585246451  0.9173507616377810  0.7343005124176336
  0.7225785579517015  0.7276278091812519  0.9953231116937699
  0.7752762928791230  0.7277495578094839  0.4947279143477363
  0.2329681518211467  0.6804086022075460  0.0253875355508600
  0.7603309202983969  0.1949477803899503  0.0298612741986855
  0.7371933395567495  0.1910852366646168  0.5302048224356303
  0.2638445302324500  0.6967460631253153  0.5269930149121014
  0.1879978826429669  0.8187700573537675  0.9737534506928505
  0.8144092570619007  0.3276253312989840  0.9734579754211332
  0.6865391719105833  0.3253191125161557  0.4747311077943770
  0.3168591453140975  0.8297202113139158  0.4707256222779998
  0.3532287575258348  0.6933370605845059  0.0678335024982937
  0.2509141551703009  0.6029422024444741  0.9686117252594264
  0.1243734517560332  0.6506049406868261  0.0751563161310017
  0.0589840744569215  0.8185209538789709  0.9487984294725967
  0.1982066738283844  0.8995978815885241  0.0224591455144950
  0.2687173302802098  0.8413714494193353  0.9126378256852324
  0.7381091585271219  0.1140029165343100  0.9760874624208840
  0.8663307064281716  0.1643372579891073  0.0809340477061928
  0.6405962264240145  0.2159159617443656  0.0711954245640361
  0.9448912579981632  0.3212335966976831  0.9511782527691303
  0.8046071854220718  0.4132276543654219  0.0179312922205274
  0.7382325373382398  0.3473555445627352  0.9102142850844992
  0.6288730752860333  0.1599483116324306  0.5797327946142599
  0.7611534479131372  0.1114231981570243  0.4756384930577006
  0.8553465972241476  0.2102459425450098  0.5731404858124313
  0.6940023749267649  0.4095020842216330  0.5206475905669770
  0.7660964430509303  0.3465198842487604  0.4128950546889850
  0.5575193818577955  0.3202965758464369  0.4501892428805662
  0.2407530561339737  0.6161591329436243  0.4730608990873816
  0.3705655487201739  0.6658017406763452  0.5774641633198045
  0.1447062915005874  0.7172367610183908  0.5689600060083383
  0.4474460807814732  0.8244058124697068  0.4486020208745286
  0.3056151227525684  0.9154953312009840  0.5149362139959188
  0.2409016165554224  0.8486066883362646  0.4072718259268531
 
  0.00000000E+00  0.00000000E+00  0.00000000E+00
  0.00000000E+00  0.00000000E+00  0.00000000E+00
  0.00000000E+00  0.00000000E+00  0.00000000E+00
  0.00000000E+00  0.00000000E+00  0.00000000E+00
  0.00000000E+00  0.00000000E+00  0.00000000E+00
  0.00000000E+00  0.00000000E+00  0.00000000E+00
  0.00000000E+00  0.00000000E+00  0.00000000E+00
  0.00000000E+00  0.00000000E+00  0.00000000E+00
  0.00000000E+00  0.00000000E+00  0.00000000E+00
  0.00000000E+00  0.00000000E+00  0.00000000E+00
  0.00000000E+00  0.00000000E+00  0.00000000E+00
  0.00000000E+00  0.00000000E+00  0.00000000E+00
  0.00000000E+00  0.00000000E+00  0.00000000E+00
  0.00000000E+00  0.00000000E+00  0.00000000E+00
  0.00000000E+00  0.00000000E+00  0.00000000E+00
  0.00000000E+00  0.00000000E+00  0.00000000E+00
  0.00000000E+00  0.00000000E+00  0.00000000E+00
  0.00000000E+00  0.00000000E+00  0.00000000E+00
  0.00000000E+00  0.00000000E+00  0.00000000E+00
  0.00000000E+00  0.00000000E+00  0.00000000E+00
  0.00000000E+00  0.00000000E+00  0.00000000E+00
  0.00000000E+00  0.00000000E+00  0.00000000E+00
  0.00000000E+00  0.00000000E+00  0.00000000E+00
  0.00000000E+00  0.00000000E+00  0.00000000E+00
  0.00000000E+00  0.00000000E+00  0.00000000E+00
  0.00000000E+00  0.00000000E+00  0.00000000E+00
  0.00000000E+00  0.00000000E+00  0.00000000E+00
  0.00000000E+00  0.00000000E+00  0.00000000E+00
  0.00000000E+00  0.00000000E+00  0.00000000E+00
  0.00000000E+00  0.00000000E+00  0.00000000E+00
  0.00000000E+00  0.00000000E+00  0.00000000E+00
  0.00000000E+00  0.00000000E+00  0.00000000E+00
  0.00000000E+00  0.00000000E+00  0.00000000E+00
  0.00000000E+00  0.00000000E+00  0.00000000E+00
  0.00000000E+00  0.00000000E+00  0.00000000E+00
  0.00000000E+00  0.00000000E+00  0.00000000E+00
  0.00000000E+00  0.00000000E+00  0.00000000E+00
  0.00000000E+00  0.00000000E+00  0.00000000E+00
  0.00000000E+00  0.00000000E+00  0.00000000E+00
  0.00000000E+00  0.00000000E+00  0.00000000E+00
  0.00000000E+00  0.00000000E+00  0.00000000E+00
  0.00000000E+00  0.00000000E+00  0.00000000E+00
  0.00000000E+00  0.00000000E+00  0.00000000E+00
  0.00000000E+00  0.00000000E+00  0.00000000E+00
  0.00000000E+00  0.00000000E+00  0.00000000E+00
  0.00000000E+00  0.00000000E+00  0.00000000E+00
  0.00000000E+00  0.00000000E+00  0.00000000E+00
  0.00000000E+00  0.00000000E+00  0.00000000E+00
