MAPbI3                                  
   1.00000000000000     
     7.8300696384578048    0.0034029527834152    0.0257277616038806
     0.0032363319820194    9.4711029168467160    0.1165521883420739
     0.0331517811503482    0.1585485820446661   13.3280031278759701
   Pb   I    C    N    H 
     4    12     4     4    24
Direct
  0.2537684527757644  0.2315082826165136  0.2453026513724383
  0.2471057957733863  0.2328953420807117  0.7457751851378694
  0.7480216141743152  0.7332331543522338  0.2452434639841772
  0.7512060112632055  0.7341115533490912  0.7447348745376440
  0.0980051065577403  0.9120043700548293  0.2384604254083044
  0.9115916161688431  0.0423950847266541  0.7732694666485944
  0.2619494612042533  0.2226408979971433 -0.0006961789281206
  0.2342049029461178  0.2254558921609350  0.4993606406467164
  0.4145209058014992  0.5409400761857400  0.2770964112015141
  0.5918171006872686  0.4161576039384582  0.7394416584628232
  0.5920094678648721  0.0448473239849169  0.2727920856147455
  0.9107655136650981  0.4175615116326982  0.2408490615013874
  0.0858456320684184  0.5429772744215423  0.7702100346916486
  0.4070210633782754  0.9161912436473789  0.7428123024848865
  0.7322105614942503  0.7257599195828883 -0.0006184537630027
  0.7649194783778779  0.7259533840427421  0.4988462154255618
  0.2409101579687929  0.6787598529899506  0.0250788690496266
  0.7545474716520396  0.1972075879452176  0.0255924593430155
  0.7431906057622629  0.1932177247866295  0.5255205444189153
  0.2531486230991116  0.7032052742234364  0.5265017492880137
  0.1834602781193278  0.8153267698854895  0.9754030525083670
  0.8200755542996168  0.3285535498657699  0.9722060131838345
  0.6800876407932567  0.3260470800104636  0.4733172783306629
  0.3236647726134457  0.8311104785439289  0.4711385149773600
  0.3640173601658018  0.6966759061274176  0.0601266422158612
  0.2517202724703623  0.5991412502608738  0.9675136532943824
  0.1460083381023745  0.6475179500404693  0.0816275450972711
  0.0564094385847931  0.8085996677023817  0.9545637906177609
  0.1921735201026459  0.8981862150395982  0.0241941763511233
  0.2553884768793939  0.8406502786284255  0.9116517869202507
  0.7541032520990270  0.1115465172538497  0.9722046993452540
  0.8389921500559929  0.1724769132178532  0.0883653399967746
  0.6256920604527119  0.2181784362481686  0.0525952505060000
  0.9498502512714949  0.3190232051255300  0.9575834932641014
  0.8041552711792661  0.4169290596548714  0.0153246756738467
  0.7576316988564576  0.3474145055905556  0.9045704330445739
  0.6512294609011388  0.1629136908330197  0.5839436618428860
  0.7543814629335778  0.1108835855571389  0.4699210217428395
  0.8668852493213072  0.2152962243427881  0.5585407377314143
  0.6900922011186837  0.4122382037824078  0.5190439149565953
  0.7481972216043928  0.3485879862888338  0.4076869711491365
  0.5520846439439538  0.3164020003935337  0.4551521208897163
  0.2398997508092556  0.6182397930092537  0.4731424038031859
  0.3419039724684238  0.6730598777849985  0.5860319743836884
  0.1295381821225396  0.7309494693470227  0.5582332788032472
  0.4527088953626320  0.8175859634319480  0.4559625019819781
  0.3121227068109039  0.9210814016329359  0.5130835099676860
  0.2607683738738918  0.8500566656806492  0.4036460908934000
 
  0.00000000E+00  0.00000000E+00  0.00000000E+00
  0.00000000E+00  0.00000000E+00  0.00000000E+00
  0.00000000E+00  0.00000000E+00  0.00000000E+00
  0.00000000E+00  0.00000000E+00  0.00000000E+00
  0.00000000E+00  0.00000000E+00  0.00000000E+00
  0.00000000E+00  0.00000000E+00  0.00000000E+00
  0.00000000E+00  0.00000000E+00  0.00000000E+00
  0.00000000E+00  0.00000000E+00  0.00000000E+00
  0.00000000E+00  0.00000000E+00  0.00000000E+00
  0.00000000E+00  0.00000000E+00  0.00000000E+00
  0.00000000E+00  0.00000000E+00  0.00000000E+00
  0.00000000E+00  0.00000000E+00  0.00000000E+00
  0.00000000E+00  0.00000000E+00  0.00000000E+00
  0.00000000E+00  0.00000000E+00  0.00000000E+00
  0.00000000E+00  0.00000000E+00  0.00000000E+00
  0.00000000E+00  0.00000000E+00  0.00000000E+00
  0.00000000E+00  0.00000000E+00  0.00000000E+00
  0.00000000E+00  0.00000000E+00  0.00000000E+00
  0.00000000E+00  0.00000000E+00  0.00000000E+00
  0.00000000E+00  0.00000000E+00  0.00000000E+00
  0.00000000E+00  0.00000000E+00  0.00000000E+00
  0.00000000E+00  0.00000000E+00  0.00000000E+00
  0.00000000E+00  0.00000000E+00  0.00000000E+00
  0.00000000E+00  0.00000000E+00  0.00000000E+00
  0.00000000E+00  0.00000000E+00  0.00000000E+00
  0.00000000E+00  0.00000000E+00  0.00000000E+00
  0.00000000E+00  0.00000000E+00  0.00000000E+00
  0.00000000E+00  0.00000000E+00  0.00000000E+00
  0.00000000E+00  0.00000000E+00  0.00000000E+00
  0.00000000E+00  0.00000000E+00  0.00000000E+00
  0.00000000E+00  0.00000000E+00  0.00000000E+00
  0.00000000E+00  0.00000000E+00  0.00000000E+00
  0.00000000E+00  0.00000000E+00  0.00000000E+00
  0.00000000E+00  0.00000000E+00  0.00000000E+00
  0.00000000E+00  0.00000000E+00  0.00000000E+00
  0.00000000E+00  0.00000000E+00  0.00000000E+00
  0.00000000E+00  0.00000000E+00  0.00000000E+00
  0.00000000E+00  0.00000000E+00  0.00000000E+00
  0.00000000E+00  0.00000000E+00  0.00000000E+00
  0.00000000E+00  0.00000000E+00  0.00000000E+00
  0.00000000E+00  0.00000000E+00  0.00000000E+00
  0.00000000E+00  0.00000000E+00  0.00000000E+00
  0.00000000E+00  0.00000000E+00  0.00000000E+00
  0.00000000E+00  0.00000000E+00  0.00000000E+00
  0.00000000E+00  0.00000000E+00  0.00000000E+00
  0.00000000E+00  0.00000000E+00  0.00000000E+00
  0.00000000E+00  0.00000000E+00  0.00000000E+00
  0.00000000E+00  0.00000000E+00  0.00000000E+00
