MAPbI3                                  
   1.00000000000000     
    10.3593256369889080    0.1128878696398711   -0.0514499810070341
     0.0950833504797091    8.3545846128210997   -0.2085700783544346
    -0.0667041185157813   -0.3051301501685724   12.6270073317486116
   Pb   I    C    N    H 
     4    12     4     4    24
Direct
  0.2793021797622557  0.2424153585133598  0.2584812283845224
  0.2923087359420871  0.2342644196878432  0.7486071902998643
  0.7963801627542129  0.7310996136324076  0.2500962143325825
  0.7802753049216019  0.7449591266265158  0.7593313213893481
  0.0598103760843476  0.9027784363504197  0.2362311723042436
  0.9620488577821208  0.0339837495915245  0.7822136945793688
  0.2766259874418950  0.2262967396379552  0.0045047600155175
  0.1975774470006545  0.2198671182277524  0.5055686927584929
  0.4606443543418521  0.5321856389290671  0.2798148589368590
  0.5509290401002225  0.4160339650161893  0.7333299026214870
  0.5251592535118985  0.0216654621073186  0.2860930155217136
  0.9365833337973298  0.3985143562012972  0.2425263016553982
  0.0256876769474615  0.5234308754100363  0.7862405823799336
  0.4424534570379922  0.9089095706903859  0.7403123409548390
  0.7021594816518162  0.7240585121555221  0.0056226843576775
  0.7781794348748485  0.7257069899231833  0.5044865517962293
  0.3088959045147607  0.7232387731869308  0.0108346410994785
  0.6884701386155369  0.2236949767576815  0.0144654954187090
  0.8013625983674608  0.2203516349866845  0.5150118464747829
  0.1964993077764525  0.7168596165615969  0.5179455093104112
  0.1849951763310781  0.8022204029034360  0.9746174241758663
  0.8096228415754662  0.3027986635880605  0.9807008379260734
  0.6810920889284096  0.3028454271485602  0.4745432208821197
  0.3129453803318931  0.8018592429379066  0.4804348727150449
  0.3560205498761649  0.8047105585424488  0.0687039993141475
  0.3706254716893549  0.7000885275375730  0.9419385996114658
  0.2854323509214007  0.6114990914302004  0.0468235006712273
  0.1375788518532570  0.7313656253382363  0.9170783161319402
  0.1237486099433254  0.8237910445855415  0.0386915452289713
  0.2020599755601941  0.9125044505630093  0.9444564055034793
  0.7150478443166450  0.1075417522926988  0.0453267726880726
  0.6420276581368189  0.3010207893823255  0.0758723009403682
  0.6247546181237477  0.2085602424612858  0.9453638551186988
  0.8725806995189964  0.3182827964871097  0.0448801623500233
  0.7888460642539377  0.4161561833270419  0.9547719232742629
  0.8564887106154820  0.2354790189697265  0.9205527541196125
  0.8476954854707822  0.3009905226650140  0.5738661950288967
  0.7734694707113227  0.1101319617686876  0.5508126944806889
  0.8658511650117726  0.1939227386610474  0.4482440008034358
  0.7023637274776194  0.4112089841734338  0.4434595604517746
  0.6342362883878296  0.2321175804134788  0.4165812326921515
  0.6178158384996048  0.3286455751426154  0.5367272582592255
  0.2283883654937037  0.6018046886616459  0.5475962323696938
  0.1508278747016102  0.7915747988936366  0.5810450719362273
  0.1298610495139414  0.6989331286933741  0.4510077039486914
  0.3781683418783659  0.8207671825591694  0.5426298629235669
  0.2871259968377960  0.9140785989723329  0.4549090740974819
  0.3589784708126933  0.7364814877067317  0.4189946177653834
 
  0.00000000E+00  0.00000000E+00  0.00000000E+00
  0.00000000E+00  0.00000000E+00  0.00000000E+00
  0.00000000E+00  0.00000000E+00  0.00000000E+00
  0.00000000E+00  0.00000000E+00  0.00000000E+00
  0.00000000E+00  0.00000000E+00  0.00000000E+00
  0.00000000E+00  0.00000000E+00  0.00000000E+00
  0.00000000E+00  0.00000000E+00  0.00000000E+00
  0.00000000E+00  0.00000000E+00  0.00000000E+00
  0.00000000E+00  0.00000000E+00  0.00000000E+00
  0.00000000E+00  0.00000000E+00  0.00000000E+00
  0.00000000E+00  0.00000000E+00  0.00000000E+00
  0.00000000E+00  0.00000000E+00  0.00000000E+00
  0.00000000E+00  0.00000000E+00  0.00000000E+00
  0.00000000E+00  0.00000000E+00  0.00000000E+00
  0.00000000E+00  0.00000000E+00  0.00000000E+00
  0.00000000E+00  0.00000000E+00  0.00000000E+00
  0.00000000E+00  0.00000000E+00  0.00000000E+00
  0.00000000E+00  0.00000000E+00  0.00000000E+00
  0.00000000E+00  0.00000000E+00  0.00000000E+00
  0.00000000E+00  0.00000000E+00  0.00000000E+00
  0.00000000E+00  0.00000000E+00  0.00000000E+00
  0.00000000E+00  0.00000000E+00  0.00000000E+00
  0.00000000E+00  0.00000000E+00  0.00000000E+00
  0.00000000E+00  0.00000000E+00  0.00000000E+00
  0.00000000E+00  0.00000000E+00  0.00000000E+00
  0.00000000E+00  0.00000000E+00  0.00000000E+00
  0.00000000E+00  0.00000000E+00  0.00000000E+00
  0.00000000E+00  0.00000000E+00  0.00000000E+00
  0.00000000E+00  0.00000000E+00  0.00000000E+00
  0.00000000E+00  0.00000000E+00  0.00000000E+00
  0.00000000E+00  0.00000000E+00  0.00000000E+00
  0.00000000E+00  0.00000000E+00  0.00000000E+00
  0.00000000E+00  0.00000000E+00  0.00000000E+00
  0.00000000E+00  0.00000000E+00  0.00000000E+00
  0.00000000E+00  0.00000000E+00  0.00000000E+00
  0.00000000E+00  0.00000000E+00  0.00000000E+00
  0.00000000E+00  0.00000000E+00  0.00000000E+00
  0.00000000E+00  0.00000000E+00  0.00000000E+00
  0.00000000E+00  0.00000000E+00  0.00000000E+00
  0.00000000E+00  0.00000000E+00  0.00000000E+00
  0.00000000E+00  0.00000000E+00  0.00000000E+00
  0.00000000E+00  0.00000000E+00  0.00000000E+00
  0.00000000E+00  0.00000000E+00  0.00000000E+00
  0.00000000E+00  0.00000000E+00  0.00000000E+00
  0.00000000E+00  0.00000000E+00  0.00000000E+00
  0.00000000E+00  0.00000000E+00  0.00000000E+00
  0.00000000E+00  0.00000000E+00  0.00000000E+00
  0.00000000E+00  0.00000000E+00  0.00000000E+00
