MAPbI3                                  
   1.00000000000000     
    11.9020495361767225    0.0958428421327325    0.1193620683465482
     0.0895467763287952    8.7249565045103790    0.1062409299033922
     0.0731096572436528    0.1151928444545410   10.3439272475406465
   Pb   I    C    N    H 
     4    12     4     4    24
Direct
  0.2764747823779817  0.2543403118937181  0.2603357137903819
  0.4010824219387455  0.2448335323659952  0.6536243783209560
  0.9092458674055861  0.7192851067144639  0.1579678452854711
  0.7846378141504009  0.7626766489951931  0.7635503299946350
  0.1194019047092065  0.9393641376723567  0.2209798864789217
  0.9436039833414690  0.0249318836632064  0.8425316089441840
  0.2928317183424488  0.2758042234144942  0.9289231445029428
  0.1567137828758086  0.2211860230234378  0.5406992725462004
  0.4389987593301173  0.5172073982929695  0.3401621141687807
  0.6090412111419622  0.4637521798438890  0.7195709685643540
  0.4781401028015201  0.0429876975482133  0.3324754080535972
  0.9598278150774030  0.3750642737153408  0.2248473104806498
  0.9824251198278241  0.5471604950596168  0.8401739276304538
  0.4756843064024133  0.9119079799043002  0.7282619284607054
  0.6649546171509660  0.7279720797276457  0.0462226562360281
  0.8043012850443085  0.7591851446826859  0.4346756808732328
  0.3190625799287116  0.7151837003156427  0.0075732742929792
  0.6567983440035262  0.2197351692056414  0.0576549798850452
  0.8015346997917562  0.2053077132193160  0.5216636650043863
  0.1701922408644662  0.7194256584862135  0.5670855382321497
  0.2349851114413397  0.8071573889403155  0.9286943628091622
  0.7527774114355573  0.2910995883412555  0.9835248777592445
  0.7236296908550313  0.2973185287522987  0.4349172125139890
  0.2657362865154964  0.7928684338629263  0.4938756714640447
  0.3753808966582804  0.7952981458389408  0.0521900094500495
  0.3659102921512800  0.6384006408322908  0.9436487351251621
  0.2731626871601172  0.6499684516786969  0.0819041624208139
  0.1757942467524171  0.7379762539533640  0.8882352979964852
  0.1914841110574288  0.8834454711435782  0.9881226069515228
  0.2767922306111500  0.8690180712343567  0.8565018759606562
  0.6905515061401049  0.1342064395253003  0.1261249873023543
  0.6097611245365339  0.3100575692144616  0.1078410979286306
  0.6022105177906274  0.1640523344878022  0.9896533625753118
  0.8065352744578872  0.3466435841665690  0.0440061642703856
  0.7228943331479604  0.3680252676999533  0.9134722961840389
  0.8022161318765898  0.2087426147939923  0.9362776397964705
  0.8602256666333781  0.2840286574793142  0.5640164690230571
  0.7508788596434484  0.1495620726713823  0.5974513994000195
  0.8464618792548865  0.1201112993870127  0.4638157513294609
  0.7702213553877642  0.3491934417045390  0.3607812171586402
  0.6627875308503753  0.2294803747148017  0.3957317465620033
  0.6822561697757381  0.3819558415099850  0.4876054019913748
  0.2043742589219856  0.6353059463002845  0.6366153136114525
  0.1211006667439456  0.8087609008282860  0.6160584852461563
  0.1171950738930550  0.6615387048894410  0.4987927787173455
  0.3190338314023868  0.8497475486746771  0.5540118160850499
  0.2353777864046260  0.8691939565740791  0.4238015820868152
  0.3153137119939743  0.7112271130557793  0.4456960465343631
 
  0.00000000E+00  0.00000000E+00  0.00000000E+00
  0.00000000E+00  0.00000000E+00  0.00000000E+00
  0.00000000E+00  0.00000000E+00  0.00000000E+00
  0.00000000E+00  0.00000000E+00  0.00000000E+00
  0.00000000E+00  0.00000000E+00  0.00000000E+00
  0.00000000E+00  0.00000000E+00  0.00000000E+00
  0.00000000E+00  0.00000000E+00  0.00000000E+00
  0.00000000E+00  0.00000000E+00  0.00000000E+00
  0.00000000E+00  0.00000000E+00  0.00000000E+00
  0.00000000E+00  0.00000000E+00  0.00000000E+00
  0.00000000E+00  0.00000000E+00  0.00000000E+00
  0.00000000E+00  0.00000000E+00  0.00000000E+00
  0.00000000E+00  0.00000000E+00  0.00000000E+00
  0.00000000E+00  0.00000000E+00  0.00000000E+00
  0.00000000E+00  0.00000000E+00  0.00000000E+00
  0.00000000E+00  0.00000000E+00  0.00000000E+00
  0.00000000E+00  0.00000000E+00  0.00000000E+00
  0.00000000E+00  0.00000000E+00  0.00000000E+00
  0.00000000E+00  0.00000000E+00  0.00000000E+00
  0.00000000E+00  0.00000000E+00  0.00000000E+00
  0.00000000E+00  0.00000000E+00  0.00000000E+00
  0.00000000E+00  0.00000000E+00  0.00000000E+00
  0.00000000E+00  0.00000000E+00  0.00000000E+00
  0.00000000E+00  0.00000000E+00  0.00000000E+00
  0.00000000E+00  0.00000000E+00  0.00000000E+00
  0.00000000E+00  0.00000000E+00  0.00000000E+00
  0.00000000E+00  0.00000000E+00  0.00000000E+00
  0.00000000E+00  0.00000000E+00  0.00000000E+00
  0.00000000E+00  0.00000000E+00  0.00000000E+00
  0.00000000E+00  0.00000000E+00  0.00000000E+00
  0.00000000E+00  0.00000000E+00  0.00000000E+00
  0.00000000E+00  0.00000000E+00  0.00000000E+00
  0.00000000E+00  0.00000000E+00  0.00000000E+00
  0.00000000E+00  0.00000000E+00  0.00000000E+00
  0.00000000E+00  0.00000000E+00  0.00000000E+00
  0.00000000E+00  0.00000000E+00  0.00000000E+00
  0.00000000E+00  0.00000000E+00  0.00000000E+00
  0.00000000E+00  0.00000000E+00  0.00000000E+00
  0.00000000E+00  0.00000000E+00  0.00000000E+00
  0.00000000E+00  0.00000000E+00  0.00000000E+00
  0.00000000E+00  0.00000000E+00  0.00000000E+00
  0.00000000E+00  0.00000000E+00  0.00000000E+00
  0.00000000E+00  0.00000000E+00  0.00000000E+00
  0.00000000E+00  0.00000000E+00  0.00000000E+00
  0.00000000E+00  0.00000000E+00  0.00000000E+00
  0.00000000E+00  0.00000000E+00  0.00000000E+00
  0.00000000E+00  0.00000000E+00  0.00000000E+00
  0.00000000E+00  0.00000000E+00  0.00000000E+00
