MAPbI3                                  
   1.00000000000000     
     9.2826865950218700    0.0038808192949593    0.0152364279683323
     0.0039544067385039    8.6479187381450977   -0.1570944205860837
     0.0239750940684611   -0.2282858821575960   13.0004595912490046
   Pb   I    C    N    H 
     4    12     4     4    24
Direct
  0.2425410636227393  0.2285539310567143  0.2552208668834462
  0.2534929576797230  0.2403203099668231  0.7580657246693232
  0.7582595689384602  0.7296391905721158  0.2562514243011470
  0.7399120886590876  0.7421682472223995  0.7587868568387637
  0.0747327108613868  0.8934393010104661  0.2509225931341711
  0.9493076587192976  0.0409362100780869  0.7635278941863080
  0.2310114017661831  0.2300282644507846  0.0092745403693361
  0.2588967039274399  0.2220172848383420  0.5094354618169137
  0.4521099856747876  0.5302749012914645  0.2666290464086182
  0.5579000465536031  0.4199575530319241  0.7614127578982802
  0.5486439180814078  0.0319346515452543  0.2631407180385148
  0.9313800666311293  0.4002640217765530  0.2620328516370635
  0.0417208002998900  0.5421752910783799  0.7655798495668280
  0.4322048203250849  0.9197888527158051  0.7648002260475758
  0.7532711556420768  0.7259065205045403  0.0107441951333805
  0.7377212473526551  0.7289252684779057  0.5108019543518598
  0.2938676958735518  0.7035742806242393  0.0143085666934039
  0.7140175830590709  0.2173641296674085  0.0178442640212864
  0.7713163885922472  0.2169148089364489  0.5225971389921310
  0.2272892973564092  0.7135914033419108  0.5239589189381818
  0.1731327564694641  0.8008163504216667  0.9738672455489129
  0.8308462374280573  0.3119890604917078  0.9696269325385257
  0.6591759344481140  0.3126918602659354  0.4703107090801791
  0.3384639762953430  0.8089071735335583  0.4700213534253735
  0.3610466448224804  0.7770384556311470  0.0646300972558307
  0.3564168661759076  0.6575169240082827  0.9487612788772515
  0.2467120087846457  0.6100625875213340  0.0573862139312014
  0.1120136730574760  0.7373767050833484  0.9205211145365343
  0.1071523737756156  0.8401093667333140  0.0336001222174153
  0.2129693952695986  0.8961505421238554  0.9375619434164365
  0.7401924749079030  0.0949606013427599  0.0050256725474205
  0.7103536673391873  0.2471769277105653  0.1000750885291054
  0.6118678742557390  0.2449459231607799  0.9811403766731375
  0.9305085430467939  0.2917682601409667  0.0022048290364265
  0.8095617835908062  0.4297661678499898  0.9784687352675370
  0.8407165854078908  0.2841698779608843  0.8918545474237857
  0.7599733850602115  0.2364087505620499  0.6056006043796728
  0.7531032299060888  0.0952666412763209  0.5009979134962440
  0.8775261807977124  0.2537568854061827  0.4964677307973087
  0.6757965034150824  0.4300790476415032  0.4854047051749509
  0.6621515969177615  0.2934672509408478  0.3914215259647602
  0.5558335545197531  0.2863865455773672  0.4944462679295024
  0.2511135390798991  0.5913240591259223  0.5078620701757492
  0.2334882121187622  0.7412842214165193  0.6063491669452608
  0.1211890689621104  0.7429859869952791  0.4940292899294089
  0.4415942237038178  0.7876228998803045  0.4964217481772786
  0.3183064822010755  0.9265794071288673  0.4812478036294706
  0.3391980686265779  0.7833130978811355  0.3917070631688118
 
  0.00000000E+00  0.00000000E+00  0.00000000E+00
  0.00000000E+00  0.00000000E+00  0.00000000E+00
  0.00000000E+00  0.00000000E+00  0.00000000E+00
  0.00000000E+00  0.00000000E+00  0.00000000E+00
  0.00000000E+00  0.00000000E+00  0.00000000E+00
  0.00000000E+00  0.00000000E+00  0.00000000E+00
  0.00000000E+00  0.00000000E+00  0.00000000E+00
  0.00000000E+00  0.00000000E+00  0.00000000E+00
  0.00000000E+00  0.00000000E+00  0.00000000E+00
  0.00000000E+00  0.00000000E+00  0.00000000E+00
  0.00000000E+00  0.00000000E+00  0.00000000E+00
  0.00000000E+00  0.00000000E+00  0.00000000E+00
  0.00000000E+00  0.00000000E+00  0.00000000E+00
  0.00000000E+00  0.00000000E+00  0.00000000E+00
  0.00000000E+00  0.00000000E+00  0.00000000E+00
  0.00000000E+00  0.00000000E+00  0.00000000E+00
  0.00000000E+00  0.00000000E+00  0.00000000E+00
  0.00000000E+00  0.00000000E+00  0.00000000E+00
  0.00000000E+00  0.00000000E+00  0.00000000E+00
  0.00000000E+00  0.00000000E+00  0.00000000E+00
  0.00000000E+00  0.00000000E+00  0.00000000E+00
  0.00000000E+00  0.00000000E+00  0.00000000E+00
  0.00000000E+00  0.00000000E+00  0.00000000E+00
  0.00000000E+00  0.00000000E+00  0.00000000E+00
  0.00000000E+00  0.00000000E+00  0.00000000E+00
  0.00000000E+00  0.00000000E+00  0.00000000E+00
  0.00000000E+00  0.00000000E+00  0.00000000E+00
  0.00000000E+00  0.00000000E+00  0.00000000E+00
  0.00000000E+00  0.00000000E+00  0.00000000E+00
  0.00000000E+00  0.00000000E+00  0.00000000E+00
  0.00000000E+00  0.00000000E+00  0.00000000E+00
  0.00000000E+00  0.00000000E+00  0.00000000E+00
  0.00000000E+00  0.00000000E+00  0.00000000E+00
  0.00000000E+00  0.00000000E+00  0.00000000E+00
  0.00000000E+00  0.00000000E+00  0.00000000E+00
  0.00000000E+00  0.00000000E+00  0.00000000E+00
  0.00000000E+00  0.00000000E+00  0.00000000E+00
  0.00000000E+00  0.00000000E+00  0.00000000E+00
  0.00000000E+00  0.00000000E+00  0.00000000E+00
  0.00000000E+00  0.00000000E+00  0.00000000E+00
  0.00000000E+00  0.00000000E+00  0.00000000E+00
  0.00000000E+00  0.00000000E+00  0.00000000E+00
  0.00000000E+00  0.00000000E+00  0.00000000E+00
  0.00000000E+00  0.00000000E+00  0.00000000E+00
  0.00000000E+00  0.00000000E+00  0.00000000E+00
  0.00000000E+00  0.00000000E+00  0.00000000E+00
  0.00000000E+00  0.00000000E+00  0.00000000E+00
  0.00000000E+00  0.00000000E+00  0.00000000E+00
