MAPbI3                                  
   1.00000000000000     
     9.9540362335866952    0.0072576388086747   -0.0003619037893123
     0.0066674029712986    8.3303857885056729   -0.2365495343265974
     0.0021248647685903   -0.3409506065435396   12.8590723268851921
   Pb   I    C    N    H 
     4    12     4     4    24
Direct
  0.2505861914292535  0.2341085385586337  0.2541468957981863
  0.2532379788077999  0.2388462372936138  0.7538665783413852
  0.7654023576518175  0.7290052886964782  0.2532178669405027
  0.7411075654945993  0.7374507687125871  0.7541113994847364
  0.0611373004279891  0.8986884532855697  0.2444885504892731
  0.9626372310710775  0.0340924382306227  0.7700499343026050
  0.2627910240277521  0.2288737997099202  0.0050084626036435
  0.2249426480456680  0.2244502851899783  0.5050750756419338
  0.4623493616006463  0.5306726968044048  0.2704779281713025
  0.5573537867584811  0.4078598559139111  0.7460963204342643
  0.5308670769460363  0.0297830870915229  0.2704750418155197
  0.9338702691423967  0.3991423521099275  0.2460450424885105
  0.0371024818545572  0.5351279932235339  0.7704002832429556
  0.4415279798254056  0.9084596911254912  0.7447462222485196
  0.7329320734329086  0.7273404227082738  0.0052177573490427
  0.7636700106346510  0.7251102524563696  0.5048786353150256
  0.3051716915923120  0.7247412144786755  0.0119805775854673
  0.6994819882630107  0.2248370278727111  0.0152946683143471
  0.7895995875756011  0.2206241245084096  0.5160909821919082
  0.2098743849788136  0.7209647560490816  0.5162252372320227
  0.1749980037161287  0.7994882456836708  0.9787747217156065
  0.8273904534671153  0.3008085904849522  0.9789159046111405
  0.6632569037694116  0.2997566225125978  0.4791435668096319
  0.3348434042774751  0.8020636064676713  0.4789458123912754
  0.3525765259041130  0.8061877792903120  0.0704771508244484
  0.3697222614667505  0.7075655983089346  0.9435619896651563
  0.2824822050860122  0.6098017626390351  0.0447865716540774
  0.1284279952775022  0.7296526437623695  0.9196329163010466
  0.1102435593871174  0.8139031210022020  0.0418802934661383
  0.1911726507010699  0.9131373095666621  0.9526751981944854
  0.7243548065081569  0.1082468726832001  0.0450036213489650
  0.6554532903579993  0.3038777133331872  0.0768100275110202
  0.6310492230328377  0.2108308883315867  0.9490167365920265
  0.8950668747769259  0.3140255180914521  0.0400821204310477
  0.8090660090984700  0.4151207860340069  0.9544677251795721
  0.8715768112842296  0.2322985536593934  0.9179384268029689
  0.8327304186552248  0.2968613697528569  0.5793301127101050
  0.7631495762239136  0.1031715703093149  0.5436352246836545
  0.8596327269526304  0.2079371630153754  0.4507113625446384
  0.6833612802846116  0.4139816665970946  0.4553607592272668
  0.6192570426210620  0.2328127681877832  0.4175003582328382
  0.5948925674885102  0.3138000609752303  0.5398065595017512
  0.2380073556077802  0.6036257370820041  0.5432274518105079
  0.1662890319147136  0.7961328536807889  0.5798898076543569
  0.1395135374155408  0.7077851625282955  0.4510960112055893
  0.4037918296721749  0.8162322062381887  0.5391711285440266
  0.3131751528664473  0.9163047384461266  0.4557869513956510
  0.3788775126253628  0.7361058073159764  0.4168260289999246
 
  0.00000000E+00  0.00000000E+00  0.00000000E+00
  0.00000000E+00  0.00000000E+00  0.00000000E+00
  0.00000000E+00  0.00000000E+00  0.00000000E+00
  0.00000000E+00  0.00000000E+00  0.00000000E+00
  0.00000000E+00  0.00000000E+00  0.00000000E+00
  0.00000000E+00  0.00000000E+00  0.00000000E+00
  0.00000000E+00  0.00000000E+00  0.00000000E+00
  0.00000000E+00  0.00000000E+00  0.00000000E+00
  0.00000000E+00  0.00000000E+00  0.00000000E+00
  0.00000000E+00  0.00000000E+00  0.00000000E+00
  0.00000000E+00  0.00000000E+00  0.00000000E+00
  0.00000000E+00  0.00000000E+00  0.00000000E+00
  0.00000000E+00  0.00000000E+00  0.00000000E+00
  0.00000000E+00  0.00000000E+00  0.00000000E+00
  0.00000000E+00  0.00000000E+00  0.00000000E+00
  0.00000000E+00  0.00000000E+00  0.00000000E+00
  0.00000000E+00  0.00000000E+00  0.00000000E+00
  0.00000000E+00  0.00000000E+00  0.00000000E+00
  0.00000000E+00  0.00000000E+00  0.00000000E+00
  0.00000000E+00  0.00000000E+00  0.00000000E+00
  0.00000000E+00  0.00000000E+00  0.00000000E+00
  0.00000000E+00  0.00000000E+00  0.00000000E+00
  0.00000000E+00  0.00000000E+00  0.00000000E+00
  0.00000000E+00  0.00000000E+00  0.00000000E+00
  0.00000000E+00  0.00000000E+00  0.00000000E+00
  0.00000000E+00  0.00000000E+00  0.00000000E+00
  0.00000000E+00  0.00000000E+00  0.00000000E+00
  0.00000000E+00  0.00000000E+00  0.00000000E+00
  0.00000000E+00  0.00000000E+00  0.00000000E+00
  0.00000000E+00  0.00000000E+00  0.00000000E+00
  0.00000000E+00  0.00000000E+00  0.00000000E+00
  0.00000000E+00  0.00000000E+00  0.00000000E+00
  0.00000000E+00  0.00000000E+00  0.00000000E+00
  0.00000000E+00  0.00000000E+00  0.00000000E+00
  0.00000000E+00  0.00000000E+00  0.00000000E+00
  0.00000000E+00  0.00000000E+00  0.00000000E+00
  0.00000000E+00  0.00000000E+00  0.00000000E+00
  0.00000000E+00  0.00000000E+00  0.00000000E+00
  0.00000000E+00  0.00000000E+00  0.00000000E+00
  0.00000000E+00  0.00000000E+00  0.00000000E+00
  0.00000000E+00  0.00000000E+00  0.00000000E+00
  0.00000000E+00  0.00000000E+00  0.00000000E+00
  0.00000000E+00  0.00000000E+00  0.00000000E+00
  0.00000000E+00  0.00000000E+00  0.00000000E+00
  0.00000000E+00  0.00000000E+00  0.00000000E+00
  0.00000000E+00  0.00000000E+00  0.00000000E+00
  0.00000000E+00  0.00000000E+00  0.00000000E+00
  0.00000000E+00  0.00000000E+00  0.00000000E+00
