MAPbI3                                  
   1.00000000000000     
     6.1555242625349518   -0.0092242031734300    0.0069584770833792
    -0.0185352067803162   10.8185110478225770    1.3934968112219044
    -0.0046185766796177    2.0507205354719384   16.8033635738969700
   Pb   I    C    N    H 
     4    12     4     4    24
Direct
  0.2197761767637783  0.2764147267977170  0.2513534362812395
  0.2796953708905837  0.2768992851850451  0.7513179249654376
  0.6929537985084520  0.7290136306241021  0.2137986427194043
  0.8094070580023695  0.7294365245395655  0.7137465221062607
  0.1515885321138939  0.8715070618418758  0.2229958513119039
  0.8397495539151693  0.1196535733535102  0.8169668632192996
  0.3549297956826440  0.3439353150105499  0.0696402446469054
  0.1444406058514417  0.3441607207834673  0.5700235782035584
  0.3705849635251000  0.4860847356173524  0.3321556019142184
  0.6340855254768737  0.5014422478086745  0.6613237381005451
  0.6571896643642831  0.1205718056282377  0.3176139792777159
  0.8682451921035758  0.5017386760579546  0.1612285535236922
  0.1296376112089743  0.4857667597351730  0.8325304128700858
  0.3492530338819952  0.8712720230329767  0.7223158867609420
  0.6461743363850218  0.8571747228021493  0.0306499810037389
  0.8581948495125161  0.8593889190366266  0.5307094246358117
  0.1562811518644965  0.7009207095734192  0.9761579462864963
  0.8539101472078571  0.1548119404631825  0.0747863981113273
  0.6430748887456007  0.1562453880812685  0.5742920400710119
  0.3443781922512528  0.6996694123763774  0.4764775502241257
  0.1607729902497907  0.8371396139046250  0.9286217802316505
  0.8488770286107084  0.2554816241683286  0.9962457309830878
  0.6484807751750935  0.2579163772447129  0.4961966394894867
  0.3428611813267287  0.8359202692499758  0.4292095194238323
  0.1474137957548201  0.6982481325386775  0.0408882508715352
  0.3044329591548389  0.6551474584227128  0.9628216516565119
  0.0130590141900583  0.6553477521465100  0.9580773070953298
  0.1940511223088689  0.8463326687524194  0.8670661398080574
  0.0152084680561608  0.8816682718472123  0.9340120704817675
  0.2845232405977229  0.8835394270871195  0.9512609341685856
  0.7055693497208210  0.0987620262619159  0.0792444359962678
  0.9969146178950447  0.0959057769055779  0.0749578255323317
  0.8611562929652069  0.2013035549602029  0.1248900438475912
  0.8406669676695993  0.2174554434736477  0.9456686397625760
  0.9871923801602686  0.3115575188438203  0.9905383383735136
  0.7139616210573407  0.3123544766309952  0.9959803475593342
  0.4990946798134474  0.0976317841141048  0.5743453099663076
  0.7904703772247131  0.1000883589696722  0.5779856826141290
  0.6373137100141807  0.2017135117761193  0.6248915060619121
  0.5103723311107035  0.3136252445049883  0.4910623279822765
  0.7837550008474752  0.3149118947286284  0.4960451646859962
  0.6561054871840881  0.2206456235190485  0.4452903243645133
  0.1953876790479639  0.6544051295917958  0.4629814229144625
  0.4867676512568027  0.6537288745142982  0.4583845529532107
  0.3530341961049566  0.6966266879363692  0.5412804335854612
  0.3103740191456013  0.8455219273020974  0.3675977211208521
  0.4890417350621449  0.8800961380278806  0.4349436511804666
  0.2195928800388041  0.8825122542271924  0.4517756710552437
 
  0.00000000E+00  0.00000000E+00  0.00000000E+00
  0.00000000E+00  0.00000000E+00  0.00000000E+00
  0.00000000E+00  0.00000000E+00  0.00000000E+00
  0.00000000E+00  0.00000000E+00  0.00000000E+00
  0.00000000E+00  0.00000000E+00  0.00000000E+00
  0.00000000E+00  0.00000000E+00  0.00000000E+00
  0.00000000E+00  0.00000000E+00  0.00000000E+00
  0.00000000E+00  0.00000000E+00  0.00000000E+00
  0.00000000E+00  0.00000000E+00  0.00000000E+00
  0.00000000E+00  0.00000000E+00  0.00000000E+00
  0.00000000E+00  0.00000000E+00  0.00000000E+00
  0.00000000E+00  0.00000000E+00  0.00000000E+00
  0.00000000E+00  0.00000000E+00  0.00000000E+00
  0.00000000E+00  0.00000000E+00  0.00000000E+00
  0.00000000E+00  0.00000000E+00  0.00000000E+00
  0.00000000E+00  0.00000000E+00  0.00000000E+00
  0.00000000E+00  0.00000000E+00  0.00000000E+00
  0.00000000E+00  0.00000000E+00  0.00000000E+00
  0.00000000E+00  0.00000000E+00  0.00000000E+00
  0.00000000E+00  0.00000000E+00  0.00000000E+00
  0.00000000E+00  0.00000000E+00  0.00000000E+00
  0.00000000E+00  0.00000000E+00  0.00000000E+00
  0.00000000E+00  0.00000000E+00  0.00000000E+00
  0.00000000E+00  0.00000000E+00  0.00000000E+00
  0.00000000E+00  0.00000000E+00  0.00000000E+00
  0.00000000E+00  0.00000000E+00  0.00000000E+00
  0.00000000E+00  0.00000000E+00  0.00000000E+00
  0.00000000E+00  0.00000000E+00  0.00000000E+00
  0.00000000E+00  0.00000000E+00  0.00000000E+00
  0.00000000E+00  0.00000000E+00  0.00000000E+00
  0.00000000E+00  0.00000000E+00  0.00000000E+00
  0.00000000E+00  0.00000000E+00  0.00000000E+00
  0.00000000E+00  0.00000000E+00  0.00000000E+00
  0.00000000E+00  0.00000000E+00  0.00000000E+00
  0.00000000E+00  0.00000000E+00  0.00000000E+00
  0.00000000E+00  0.00000000E+00  0.00000000E+00
  0.00000000E+00  0.00000000E+00  0.00000000E+00
  0.00000000E+00  0.00000000E+00  0.00000000E+00
  0.00000000E+00  0.00000000E+00  0.00000000E+00
  0.00000000E+00  0.00000000E+00  0.00000000E+00
  0.00000000E+00  0.00000000E+00  0.00000000E+00
  0.00000000E+00  0.00000000E+00  0.00000000E+00
  0.00000000E+00  0.00000000E+00  0.00000000E+00
  0.00000000E+00  0.00000000E+00  0.00000000E+00
  0.00000000E+00  0.00000000E+00  0.00000000E+00
  0.00000000E+00  0.00000000E+00  0.00000000E+00
  0.00000000E+00  0.00000000E+00  0.00000000E+00
  0.00000000E+00  0.00000000E+00  0.00000000E+00
