MAPbI3                                  
   1.00000000000000     
    11.7841103213916174    0.1242014084178204    0.1197849816503732
     0.1104004096457321    8.7841098025166602    0.0466717880806167
     0.0738792578814519    0.0449132270594052   10.3803839228665957
   Pb   I    C    N    H 
     4    12     4     4    24
Direct
  0.2775293885212662  0.2545847597363013  0.2631493175555407
  0.4005835946860573  0.2422475690101390  0.6597490681949895
  0.9092943678669692  0.7173334505950951  0.1616722357219843
  0.7854248706939611  0.7621788331136056  0.7657762838838337
  0.1185602927509025  0.9409580056175816  0.2224073247650062
  0.9445108733796485  0.0252237383163995  0.8399167508776439
  0.2924808430310187  0.2730627125506199  0.9338838313644260
  0.1556924995173609  0.2251104765868789  0.5427019884722746
  0.4408696003542988  0.5173414345242396  0.3365683805490929
  0.6081934539266424  0.4657520180027223  0.7194698180291479
  0.4806973784336296  0.0439958271762906  0.3357502893958273
  0.9606207196567113  0.3756096402814370  0.2244766849928290
  0.9858219010429811  0.5483882295099303  0.8423502766018707
  0.4769527553359758  0.9116259885756386  0.7280392050992400
  0.6642266846036281  0.7305996433690845  0.0460095734718339
  0.8046218544945546  0.7587604948275111  0.4371536498405352
  0.3200779454191575  0.7153088168774604  0.0065169306568343
  0.6547884105212064  0.2221822202972354  0.0554256859211755
  0.8021875057880422  0.2052956865585123  0.5218566211660596
  0.1703752186430334  0.7184265967564831  0.5660512691902549
  0.2342356965148888  0.8059807110764291  0.9293196132125677
  0.7515808251140722  0.2924004797333584  0.9820313778736470
  0.7236572908260376  0.2957502332630610  0.4352699659235701
  0.2656574935710349  0.7918609400992692  0.4924897593938245
  0.3768957655485191  0.7951441508060413  0.0510989005079284
  0.3674394363047554  0.6388068322491868  0.9418826979684725
  0.2745422756614703  0.6506714793125311  0.0804172587460728
  0.1742194878563064  0.7368788243232068  0.8893622200736242
  0.1904807945048582  0.8823425325856236  0.9892537267582074
  0.2755631669327011  0.8666972507626466  0.8572091675216094
  0.6891801535265825  0.1381135008239305  0.1234840513939221
  0.6067450915376056  0.3122358655626037  0.1057700291057770
  0.6000852639786323  0.1658293966110904  0.9874414430638990
  0.8056208747844736  0.3480551409213489  0.0426598885158339
  0.7213188423169463  0.3682468441905070  0.9125509282081702
  0.8018867159547034  0.2101248947448691  0.9346476983640591
  0.8609823073423448  0.2838373088900167  0.5647780810293450
  0.7508955228892034  0.1504786991633192  0.5967624891183069
  0.8482230988068078  0.1201153639011836  0.4641360211398003
  0.7707219867358530  0.3459519522655016  0.3614795744972421
  0.6622595272740371  0.2279466233811359  0.3961223131689267
  0.6815596173725406  0.3807644823524727  0.4875760468122404
  0.2062218763745319  0.6363838935803900  0.6349322667608049
  0.1199351040414857  0.8070388797332692  0.6153484788750336
  0.1172166435320449  0.6590888959123247  0.4983415055979060
  0.3192055968578054  0.8497419962863976  0.5521211107209330
  0.2338472284852571  0.8664616795876606  0.4230468038615088
  0.3163141566874784  0.7107610055974924  0.4438893960364487
 
  0.00000000E+00  0.00000000E+00  0.00000000E+00
  0.00000000E+00  0.00000000E+00  0.00000000E+00
  0.00000000E+00  0.00000000E+00  0.00000000E+00
  0.00000000E+00  0.00000000E+00  0.00000000E+00
  0.00000000E+00  0.00000000E+00  0.00000000E+00
  0.00000000E+00  0.00000000E+00  0.00000000E+00
  0.00000000E+00  0.00000000E+00  0.00000000E+00
  0.00000000E+00  0.00000000E+00  0.00000000E+00
  0.00000000E+00  0.00000000E+00  0.00000000E+00
  0.00000000E+00  0.00000000E+00  0.00000000E+00
  0.00000000E+00  0.00000000E+00  0.00000000E+00
  0.00000000E+00  0.00000000E+00  0.00000000E+00
  0.00000000E+00  0.00000000E+00  0.00000000E+00
  0.00000000E+00  0.00000000E+00  0.00000000E+00
  0.00000000E+00  0.00000000E+00  0.00000000E+00
  0.00000000E+00  0.00000000E+00  0.00000000E+00
  0.00000000E+00  0.00000000E+00  0.00000000E+00
  0.00000000E+00  0.00000000E+00  0.00000000E+00
  0.00000000E+00  0.00000000E+00  0.00000000E+00
  0.00000000E+00  0.00000000E+00  0.00000000E+00
  0.00000000E+00  0.00000000E+00  0.00000000E+00
  0.00000000E+00  0.00000000E+00  0.00000000E+00
  0.00000000E+00  0.00000000E+00  0.00000000E+00
  0.00000000E+00  0.00000000E+00  0.00000000E+00
  0.00000000E+00  0.00000000E+00  0.00000000E+00
  0.00000000E+00  0.00000000E+00  0.00000000E+00
  0.00000000E+00  0.00000000E+00  0.00000000E+00
  0.00000000E+00  0.00000000E+00  0.00000000E+00
  0.00000000E+00  0.00000000E+00  0.00000000E+00
  0.00000000E+00  0.00000000E+00  0.00000000E+00
  0.00000000E+00  0.00000000E+00  0.00000000E+00
  0.00000000E+00  0.00000000E+00  0.00000000E+00
  0.00000000E+00  0.00000000E+00  0.00000000E+00
  0.00000000E+00  0.00000000E+00  0.00000000E+00
  0.00000000E+00  0.00000000E+00  0.00000000E+00
  0.00000000E+00  0.00000000E+00  0.00000000E+00
  0.00000000E+00  0.00000000E+00  0.00000000E+00
  0.00000000E+00  0.00000000E+00  0.00000000E+00
  0.00000000E+00  0.00000000E+00  0.00000000E+00
  0.00000000E+00  0.00000000E+00  0.00000000E+00
  0.00000000E+00  0.00000000E+00  0.00000000E+00
  0.00000000E+00  0.00000000E+00  0.00000000E+00
  0.00000000E+00  0.00000000E+00  0.00000000E+00
  0.00000000E+00  0.00000000E+00  0.00000000E+00
  0.00000000E+00  0.00000000E+00  0.00000000E+00
  0.00000000E+00  0.00000000E+00  0.00000000E+00
  0.00000000E+00  0.00000000E+00  0.00000000E+00
  0.00000000E+00  0.00000000E+00  0.00000000E+00
