MAPbI3                                  
   1.00000000000000     
     8.7869242798968852   -0.0029473656952520    0.0358580110412236
    -0.0029643773899101    8.9354483522770618   -0.0807885067561650
     0.0532190035430164   -0.1187495701780144   13.0876847212427165
   Pb   I    C    N    H 
     4    12     4     4    24
Direct
  0.2438416936284821  0.2314717733999436  0.2548899711252738
  0.2501913722628303  0.2356253090332883  0.7568856614449965
  0.7563953121153275  0.7320513080383400  0.2554139929978791
  0.7422808264791270  0.7362845549504781  0.7578176183085397
  0.0820038842168104  0.8998931523432060  0.2498364944353721
  0.9401549071905657  0.0369521675524967  0.7688212811245393
  0.2376282584266840  0.2253626379058191  0.0096736965977322
  0.2543199970928073  0.2196106674602185  0.5097619680857810
  0.4411282500187548  0.5351571563457161  0.2710763926520028
  0.5638583544692802  0.4175113499477904  0.7582028746293602
  0.5611248121381526  0.0365057913233306  0.2691640487517406
  0.9254782865364208  0.4053119528505093  0.2576882811872435
  0.0524920166052887  0.5392505851875732  0.7669251457895255
  0.4280960770737431  0.9183778185326300  0.7648898063701205
  0.7529475475495112  0.7219110402966182  0.0100896867533849
  0.7465282488083296  0.7275340194807577  0.5104768208362299
  0.2788355105275660  0.6816518070795090  0.0113927023251990
  0.7145909326281144  0.2145497713757676  0.0154922976954156
  0.7720996710438450  0.2148352036749972  0.5248193286172923
  0.2290069796137031  0.7149832099488641  0.5250688302465908
  0.1771516201140761  0.8058285272288693  0.9761986635053925
  0.8290096768073929  0.3171989797050751  0.9666296681181517
  0.6660130987623045  0.3202290701715151  0.4718032582434342
  0.3377151647483164  0.8171266587222461  0.4701800159839394
  0.3768278988055892  0.7319490077003994  0.0496859035511812
  0.3152198525328264  0.6159198053331447  0.9444106185873256
  0.2143872604406459  0.6126095059250359  0.0644496811607020
  0.0803165778245916  0.7634484059045320  0.9420130867516855
  0.1436275636046509  0.8732597084085523  0.0374431557283271
  0.2333259030812793  0.8708477000599149  0.9229860459400704
  0.7353480268465959  0.1007006576147656  0.9867677115853546
  0.7294251799619106  0.2212706766608216  0.0981307771775712
  0.6006802834643211  0.2515507670652087  0.9946452329596069
  0.9398061565389804  0.2889049626733403  0.9853961337336173
  0.8113078024821371  0.4279092776153417  0.9891585452337484
  0.8209069721876713  0.3120657131423989  0.8879489391239255
  0.7423469922987245  0.2146210148300824  0.6058741070939909
  0.7584910917540241  0.1032853935835745  0.4904286998636503
  0.8885806827393613  0.2547942784413054  0.5138461742995347
  0.6795075589866610  0.4295164409297874  0.4983057754848542
  0.6877781802123941  0.3202326345136272  0.3940090840539530
  0.5529523094704455  0.2904810875457316  0.4826891602854115
  0.2511534430947239  0.6000294975139266  0.4990522153711096
  0.2482470728896420  0.7274241895514807  0.6070138569154111
  0.1129032991896655  0.7476695379591497  0.5061451498001056
  0.4502487686705233  0.7923088222394082  0.4865719103455633
  0.3187441071266682  0.9285957108558482  0.4902540954980324
  0.3249765169385641  0.8070866913770679  0.3919234336301491
 
  0.00000000E+00  0.00000000E+00  0.00000000E+00
  0.00000000E+00  0.00000000E+00  0.00000000E+00
  0.00000000E+00  0.00000000E+00  0.00000000E+00
  0.00000000E+00  0.00000000E+00  0.00000000E+00
  0.00000000E+00  0.00000000E+00  0.00000000E+00
  0.00000000E+00  0.00000000E+00  0.00000000E+00
  0.00000000E+00  0.00000000E+00  0.00000000E+00
  0.00000000E+00  0.00000000E+00  0.00000000E+00
  0.00000000E+00  0.00000000E+00  0.00000000E+00
  0.00000000E+00  0.00000000E+00  0.00000000E+00
  0.00000000E+00  0.00000000E+00  0.00000000E+00
  0.00000000E+00  0.00000000E+00  0.00000000E+00
  0.00000000E+00  0.00000000E+00  0.00000000E+00
  0.00000000E+00  0.00000000E+00  0.00000000E+00
  0.00000000E+00  0.00000000E+00  0.00000000E+00
  0.00000000E+00  0.00000000E+00  0.00000000E+00
  0.00000000E+00  0.00000000E+00  0.00000000E+00
  0.00000000E+00  0.00000000E+00  0.00000000E+00
  0.00000000E+00  0.00000000E+00  0.00000000E+00
  0.00000000E+00  0.00000000E+00  0.00000000E+00
  0.00000000E+00  0.00000000E+00  0.00000000E+00
  0.00000000E+00  0.00000000E+00  0.00000000E+00
  0.00000000E+00  0.00000000E+00  0.00000000E+00
  0.00000000E+00  0.00000000E+00  0.00000000E+00
  0.00000000E+00  0.00000000E+00  0.00000000E+00
  0.00000000E+00  0.00000000E+00  0.00000000E+00
  0.00000000E+00  0.00000000E+00  0.00000000E+00
  0.00000000E+00  0.00000000E+00  0.00000000E+00
  0.00000000E+00  0.00000000E+00  0.00000000E+00
  0.00000000E+00  0.00000000E+00  0.00000000E+00
  0.00000000E+00  0.00000000E+00  0.00000000E+00
  0.00000000E+00  0.00000000E+00  0.00000000E+00
  0.00000000E+00  0.00000000E+00  0.00000000E+00
  0.00000000E+00  0.00000000E+00  0.00000000E+00
  0.00000000E+00  0.00000000E+00  0.00000000E+00
  0.00000000E+00  0.00000000E+00  0.00000000E+00
  0.00000000E+00  0.00000000E+00  0.00000000E+00
  0.00000000E+00  0.00000000E+00  0.00000000E+00
  0.00000000E+00  0.00000000E+00  0.00000000E+00
  0.00000000E+00  0.00000000E+00  0.00000000E+00
  0.00000000E+00  0.00000000E+00  0.00000000E+00
  0.00000000E+00  0.00000000E+00  0.00000000E+00
  0.00000000E+00  0.00000000E+00  0.00000000E+00
  0.00000000E+00  0.00000000E+00  0.00000000E+00
  0.00000000E+00  0.00000000E+00  0.00000000E+00
  0.00000000E+00  0.00000000E+00  0.00000000E+00
  0.00000000E+00  0.00000000E+00  0.00000000E+00
  0.00000000E+00  0.00000000E+00  0.00000000E+00
