MAPbI3                                  
   1.00000000000000     
     9.8552363959851856    0.0028732307817928   -0.0006683867430693
     0.0030255500541745    8.3568140784165070   -0.2450140413055142
     0.0019040250989539   -0.3541828419330071   12.8911233198968311
   Pb   I    C    N    H 
     4    12     4     4    24
Direct
  0.2449882699749828  0.2310780876191320  0.2540636046744428
  0.2539732284912066  0.2379840560424739  0.7542546431960395
  0.7599538819303320  0.7290231283450951  0.2546159759008241
  0.7415442506405172  0.7378301970078499  0.7544496509887217
  0.0641058958789886  0.8982078590503700  0.2458916481917182
  0.9594128232036054  0.0369629973783789  0.7682178559236542
  0.2532819753494721  0.2320615592515666  0.0052656620204332
  0.2357178326490150  0.2251028406339451  0.5050532466176872
  0.4628898487962610  0.5306216977340572  0.2686065633791170
  0.5583229329848947  0.4081732851092649  0.7469900813030156
  0.5354199998097311  0.0301814231918475  0.2690728953506455
  0.9344853456868960  0.3985791996436225  0.2470456880313523
  0.0378540354017650  0.5367861417002119  0.7686090170412252
  0.4402639804050667  0.9090073602034201  0.7456017121796384
  0.7374455956033160  0.7280140430128045  0.0054261443003619
  0.7628808703737304  0.7243332497541235  0.5052483310672361
  0.3052472309925031  0.7246287086879784  0.0124992382552726
  0.6996525012069253  0.2245966709733774  0.0155283947436330
  0.7892710202742371  0.2207993163844247  0.5163062411974617
  0.2100302400067159  0.7200999819505661  0.5159859660555597
  0.1740828646941800  0.7995200353757909  0.9791387011046890
  0.8281014683274787  0.3014038690326800  0.9788245617895437
  0.6622122910170890  0.3000078827681113  0.4789385371925448
  0.3357266179952937  0.8013817418824721  0.4781334131599512
  0.3526167773029194  0.8051381882223538  0.0716156558312897
  0.3710846481919452  0.7082438293165793  0.9445600335864406
  0.2819063281800795  0.6096536259496332  0.0444178836284168
  0.1276220972970591  0.7304835949863074  0.9194957192828452
  0.1080354634455812  0.8129797817787008  0.0417152475720234
  0.1906290008498149  0.9132389750938366  0.9539451013256730
  0.7253821557105148  0.1076633226576595  0.0436984350234406
  0.6561602424479815  0.3018875731763017  0.0781653036886564
  0.6293533520524012  0.2118205554942819  0.9500439219145377
  0.8977618084050603  0.3129765052197513  0.0390024826288123
  0.8092073077537425  0.4160874396238316  0.9559695337318247
  0.8715279098677081  0.2344098956149387  0.9168407670565896
  0.8303978599120518  0.2943853383498465  0.5815989930320382
  0.7625699228012143  0.1020101602965557  0.5408521217234143
  0.8619520135392073  0.2118531182683546  0.4522196165289601
  0.6825720468977794  0.4151353206996681  0.4575528806994334
  0.6198442682567247  0.2349640434820764  0.4157641345519644
  0.5912780836819688  0.3109490022945905  0.5382284326435801
  0.2386474380876731  0.6021720706709442  0.5410468914348227
  0.1679387804343427  0.7935522267825099  0.5810146815004460
  0.1374034906675370  0.7090320210171285  0.4519695351832605
  0.4068902333049206  0.8135640547342612  0.5371942575470456
  0.3137986154233185  0.9161612756376152  0.4567881076904749
  0.3785571537943175  0.7369487478986645  0.4148804885293097
 
  0.00000000E+00  0.00000000E+00  0.00000000E+00
  0.00000000E+00  0.00000000E+00  0.00000000E+00
  0.00000000E+00  0.00000000E+00  0.00000000E+00
  0.00000000E+00  0.00000000E+00  0.00000000E+00
  0.00000000E+00  0.00000000E+00  0.00000000E+00
  0.00000000E+00  0.00000000E+00  0.00000000E+00
  0.00000000E+00  0.00000000E+00  0.00000000E+00
  0.00000000E+00  0.00000000E+00  0.00000000E+00
  0.00000000E+00  0.00000000E+00  0.00000000E+00
  0.00000000E+00  0.00000000E+00  0.00000000E+00
  0.00000000E+00  0.00000000E+00  0.00000000E+00
  0.00000000E+00  0.00000000E+00  0.00000000E+00
  0.00000000E+00  0.00000000E+00  0.00000000E+00
  0.00000000E+00  0.00000000E+00  0.00000000E+00
  0.00000000E+00  0.00000000E+00  0.00000000E+00
  0.00000000E+00  0.00000000E+00  0.00000000E+00
  0.00000000E+00  0.00000000E+00  0.00000000E+00
  0.00000000E+00  0.00000000E+00  0.00000000E+00
  0.00000000E+00  0.00000000E+00  0.00000000E+00
  0.00000000E+00  0.00000000E+00  0.00000000E+00
  0.00000000E+00  0.00000000E+00  0.00000000E+00
  0.00000000E+00  0.00000000E+00  0.00000000E+00
  0.00000000E+00  0.00000000E+00  0.00000000E+00
  0.00000000E+00  0.00000000E+00  0.00000000E+00
  0.00000000E+00  0.00000000E+00  0.00000000E+00
  0.00000000E+00  0.00000000E+00  0.00000000E+00
  0.00000000E+00  0.00000000E+00  0.00000000E+00
  0.00000000E+00  0.00000000E+00  0.00000000E+00
  0.00000000E+00  0.00000000E+00  0.00000000E+00
  0.00000000E+00  0.00000000E+00  0.00000000E+00
  0.00000000E+00  0.00000000E+00  0.00000000E+00
  0.00000000E+00  0.00000000E+00  0.00000000E+00
  0.00000000E+00  0.00000000E+00  0.00000000E+00
  0.00000000E+00  0.00000000E+00  0.00000000E+00
  0.00000000E+00  0.00000000E+00  0.00000000E+00
  0.00000000E+00  0.00000000E+00  0.00000000E+00
  0.00000000E+00  0.00000000E+00  0.00000000E+00
  0.00000000E+00  0.00000000E+00  0.00000000E+00
  0.00000000E+00  0.00000000E+00  0.00000000E+00
  0.00000000E+00  0.00000000E+00  0.00000000E+00
  0.00000000E+00  0.00000000E+00  0.00000000E+00
  0.00000000E+00  0.00000000E+00  0.00000000E+00
  0.00000000E+00  0.00000000E+00  0.00000000E+00
  0.00000000E+00  0.00000000E+00  0.00000000E+00
  0.00000000E+00  0.00000000E+00  0.00000000E+00
  0.00000000E+00  0.00000000E+00  0.00000000E+00
  0.00000000E+00  0.00000000E+00  0.00000000E+00
  0.00000000E+00  0.00000000E+00  0.00000000E+00
