MAPbI3                                  
   1.00000000000000     
     8.3155624020918690   -0.0032431647701172    0.0460868607621973
    -0.0036186146147044    9.2157345483141135   -0.0204239483093962
     0.0681264325998342   -0.0349514044783865   13.2053887293558638
   Pb   I    C    N    H 
     4    12     4     4    24
Direct
  0.2499554977412481  0.2286291190938712  0.2537430089037916
  0.2465354629752350  0.2321828254606697  0.7552980210737736
  0.7571767620173596  0.7299036842733991  0.2539538442145872
  0.7443711509419135  0.7321419962798095  0.7549179250448663
  0.0898995337133207  0.9035273720319253  0.2484467586465013
  0.9249346127453726  0.0388091420912821  0.7708756632485382
  0.2416816841927207  0.2187297991799581  0.0087407090226996
  0.2517919280461796  0.2144652694832692  0.5084703174958036
  0.4307848323545780  0.5350966603112970  0.2732766990179920
  0.5727294446083592  0.4159580894042956  0.7529776900191376
  0.5786522119777944  0.0378439308881384  0.2715369748148543
  0.9232343892015459  0.4096867015355207  0.2515547782199746
  0.0675369494549358  0.5400669963919785  0.7678352838596333
  0.4194702547437693  0.9163679312797874  0.7577657180777020
  0.7482257038364839  0.7211677335153162  0.0083370833539757
  0.7515982448272708  0.7214498237496465  0.5089168837250555
  0.2629604138723793  0.6793097112927133  0.0204537869421235
  0.7222147599757083  0.2114254216254564  0.0165411892848833
  0.7705030455955898  0.2117299226678584  0.5218281632531566
  0.2365688107408059  0.7077456917286920  0.5238309960190756
  0.1786941459832310  0.8093109434227646  0.9769545842797439
  0.8262699349834045  0.3251126232083897  0.9671125563595083
  0.6691387830416506  0.3249214306326109  0.4711524194579720
  0.3340398045457253  0.8214966821525951  0.4693471818034632
  0.3780021123373928  0.7151494283453275  0.0507094775375038
  0.2810220121073603  0.5998548458594672  0.9597864669088365
  0.1874956579479657  0.6346008630609218  0.0808795971814072
  0.0614670937965066  0.7840500964256754  0.9578736194949878
  0.1729331650089792  0.8932514140507813  0.0290665725596705
  0.2383531587378430  0.8467679315236187  0.9125632238903345
  0.7523063564457780  0.1061729983167408  0.9829373474630787
  0.7461797647658941  0.2121418028829513  0.0975755336499592
  0.5966002542213215  0.2382709125986039  0.0025055821070292
  0.9474639171561563  0.3034515191728223  0.9781825454347470
  0.8025630166708234  0.4279369848468231  0.9957456078999664
  0.8057923803756228  0.3290756589581250  0.8900449675453448
  0.7278199682775320  0.1994528850015046  0.5996868296294915
  0.7584651492867271  0.1100406845125620  0.4796137334702861
  0.8953061754521374  0.2485708742127144  0.5205149389849233
  0.6828130103772131  0.4259257311402578  0.5047259176985787
  0.7021806832998149  0.3360745944947240  0.3957132160913665
  0.5479126559269852  0.2979460251229498  0.4749857607826783
  0.2592805708390130  0.6030628436955383  0.4871597367455226
  0.2732834179587672  0.7061938800429992  0.6028245526157714
  0.1096102538608158  0.7365456863330849  0.5182922265631564
  0.4563775321122470  0.8007347638041364  0.4751465112049992
  0.3128641987478696  0.9244607087748553  0.4985932061173710
  0.3049411321726476  0.8248833651214770  0.3933525922841730
 
  0.00000000E+00  0.00000000E+00  0.00000000E+00
  0.00000000E+00  0.00000000E+00  0.00000000E+00
  0.00000000E+00  0.00000000E+00  0.00000000E+00
  0.00000000E+00  0.00000000E+00  0.00000000E+00
  0.00000000E+00  0.00000000E+00  0.00000000E+00
  0.00000000E+00  0.00000000E+00  0.00000000E+00
  0.00000000E+00  0.00000000E+00  0.00000000E+00
  0.00000000E+00  0.00000000E+00  0.00000000E+00
  0.00000000E+00  0.00000000E+00  0.00000000E+00
  0.00000000E+00  0.00000000E+00  0.00000000E+00
  0.00000000E+00  0.00000000E+00  0.00000000E+00
  0.00000000E+00  0.00000000E+00  0.00000000E+00
  0.00000000E+00  0.00000000E+00  0.00000000E+00
  0.00000000E+00  0.00000000E+00  0.00000000E+00
  0.00000000E+00  0.00000000E+00  0.00000000E+00
  0.00000000E+00  0.00000000E+00  0.00000000E+00
  0.00000000E+00  0.00000000E+00  0.00000000E+00
  0.00000000E+00  0.00000000E+00  0.00000000E+00
  0.00000000E+00  0.00000000E+00  0.00000000E+00
  0.00000000E+00  0.00000000E+00  0.00000000E+00
  0.00000000E+00  0.00000000E+00  0.00000000E+00
  0.00000000E+00  0.00000000E+00  0.00000000E+00
  0.00000000E+00  0.00000000E+00  0.00000000E+00
  0.00000000E+00  0.00000000E+00  0.00000000E+00
  0.00000000E+00  0.00000000E+00  0.00000000E+00
  0.00000000E+00  0.00000000E+00  0.00000000E+00
  0.00000000E+00  0.00000000E+00  0.00000000E+00
  0.00000000E+00  0.00000000E+00  0.00000000E+00
  0.00000000E+00  0.00000000E+00  0.00000000E+00
  0.00000000E+00  0.00000000E+00  0.00000000E+00
  0.00000000E+00  0.00000000E+00  0.00000000E+00
  0.00000000E+00  0.00000000E+00  0.00000000E+00
  0.00000000E+00  0.00000000E+00  0.00000000E+00
  0.00000000E+00  0.00000000E+00  0.00000000E+00
  0.00000000E+00  0.00000000E+00  0.00000000E+00
  0.00000000E+00  0.00000000E+00  0.00000000E+00
  0.00000000E+00  0.00000000E+00  0.00000000E+00
  0.00000000E+00  0.00000000E+00  0.00000000E+00
  0.00000000E+00  0.00000000E+00  0.00000000E+00
  0.00000000E+00  0.00000000E+00  0.00000000E+00
  0.00000000E+00  0.00000000E+00  0.00000000E+00
  0.00000000E+00  0.00000000E+00  0.00000000E+00
  0.00000000E+00  0.00000000E+00  0.00000000E+00
  0.00000000E+00  0.00000000E+00  0.00000000E+00
  0.00000000E+00  0.00000000E+00  0.00000000E+00
  0.00000000E+00  0.00000000E+00  0.00000000E+00
  0.00000000E+00  0.00000000E+00  0.00000000E+00
  0.00000000E+00  0.00000000E+00  0.00000000E+00
