MAPbI3                                  
   1.00000000000000     
     8.2326060157721948   -0.0051064722071012    0.0475074959625603
    -0.0057250622851186    9.2713877135195588   -0.0156855273944761
     0.0703075556839102   -0.0283650727623967   13.2264015788337161
   Pb   I    C    N    H 
     4    12     4     4    24
Direct
  0.2513756202413173  0.2280787407047594  0.2528855168571054
  0.2460672347486045  0.2307814287800997  0.7545664254776007
  0.7567822997096197  0.7298169728280602  0.2538158763382528
  0.7445175774996379  0.7319100438360270  0.7546600243524418
  0.0919217638475335  0.9039768142849750  0.2476508505741413
  0.9214609788538694  0.0384168137777348  0.7709024731637139
  0.2410479472058374  0.2177311211689232  0.0083424919073604
  0.2518908791707174  0.2140414753618935  0.5083383823568622
  0.4292883279809788  0.5346087921763215  0.2738764015385257
  0.5727924845910313  0.4163047804897498  0.7526852337205924
  0.5822465395371955  0.0380232198636993  0.2713152951405203
  0.9229784862283206  0.4100885182793493  0.2506272752153711
  0.0691339520061305  0.5380590853027667  0.7681662437463819
  0.4180233223093505  0.9155203180983614  0.7573043886861247
  0.7472134928865868  0.7213699974545241  0.0080390687085391
  0.7518492947546470  0.7199924559190150  0.5083056957941373
  0.2618339240238544  0.6792933239054371  0.0209000134743177
  0.7220760668701031  0.2125777862541626  0.0166185899266426
  0.7702438750160929  0.2110782303675452  0.5217237891208570
  0.2376599221646190  0.7070028932605630  0.5244471828113452
  0.1791889040970067  0.8094385965365538  0.9770614607541102
  0.8255042136900598  0.3265192122487622  0.9669415236278935
  0.6706960243649162  0.3251276037829441  0.4707763352767750
  0.3332305921877558  0.8220064465725516  0.4699746149242290
  0.3786201108476529  0.7133379424731194  0.0509755558435437
  0.2786323599104033  0.5998182839518482  0.9605318831784859
  0.1847571479474167  0.6361440881266924  0.0813275475114276
  0.0600618038093311  0.7859206729209844  0.9586354025315046
  0.1753698464602994  0.8933502531986529  0.0287017198653667
  0.2396227667012623  0.8453025661124866  0.9123729677901485
  0.7525386965945607  0.1084297875577713  0.9824545240092006
  0.7477552060750104  0.2126436777780226  0.0973124394633833
  0.5948100729249727  0.2386525958198564  0.0036067866085574
  0.9482248862150892  0.3053735001086789  0.9770880738237442
  0.8015789333981237  0.4282649606609020  0.9962138429731819
  0.8032941186204212  0.3313591747559936  0.8901650111276472
  0.7246507676531234  0.1978077974033490  0.5988442547214312
  0.7585317393606523  0.1108283679410571  0.4786423607117301
  0.8966113362129007  0.2467946678341451  0.5221823501148540
  0.6845924483808844  0.4249589504310024  0.5050166086270934
  0.7061324793300723  0.3369656238679256  0.3958079568962939
  0.5479286740724212  0.2991785870012538  0.4733886606528557
  0.2608027894219952  0.6039049716072526  0.4866542400917921
  0.2769282005448858  0.7041873645012028  0.6028469364434818
  0.1089689359703268  0.7344432203887893  0.5206173038509190
  0.4571651796674324  0.8022009348488224  0.4744108753488799
  0.3116217065471006  0.9236070297343644  0.5002177529799425
  0.3017780693478704  0.8264563097209617  0.3944077913407185
 
  0.00000000E+00  0.00000000E+00  0.00000000E+00
  0.00000000E+00  0.00000000E+00  0.00000000E+00
  0.00000000E+00  0.00000000E+00  0.00000000E+00
  0.00000000E+00  0.00000000E+00  0.00000000E+00
  0.00000000E+00  0.00000000E+00  0.00000000E+00
  0.00000000E+00  0.00000000E+00  0.00000000E+00
  0.00000000E+00  0.00000000E+00  0.00000000E+00
  0.00000000E+00  0.00000000E+00  0.00000000E+00
  0.00000000E+00  0.00000000E+00  0.00000000E+00
  0.00000000E+00  0.00000000E+00  0.00000000E+00
  0.00000000E+00  0.00000000E+00  0.00000000E+00
  0.00000000E+00  0.00000000E+00  0.00000000E+00
  0.00000000E+00  0.00000000E+00  0.00000000E+00
  0.00000000E+00  0.00000000E+00  0.00000000E+00
  0.00000000E+00  0.00000000E+00  0.00000000E+00
  0.00000000E+00  0.00000000E+00  0.00000000E+00
  0.00000000E+00  0.00000000E+00  0.00000000E+00
  0.00000000E+00  0.00000000E+00  0.00000000E+00
  0.00000000E+00  0.00000000E+00  0.00000000E+00
  0.00000000E+00  0.00000000E+00  0.00000000E+00
  0.00000000E+00  0.00000000E+00  0.00000000E+00
  0.00000000E+00  0.00000000E+00  0.00000000E+00
  0.00000000E+00  0.00000000E+00  0.00000000E+00
  0.00000000E+00  0.00000000E+00  0.00000000E+00
  0.00000000E+00  0.00000000E+00  0.00000000E+00
  0.00000000E+00  0.00000000E+00  0.00000000E+00
  0.00000000E+00  0.00000000E+00  0.00000000E+00
  0.00000000E+00  0.00000000E+00  0.00000000E+00
  0.00000000E+00  0.00000000E+00  0.00000000E+00
  0.00000000E+00  0.00000000E+00  0.00000000E+00
  0.00000000E+00  0.00000000E+00  0.00000000E+00
  0.00000000E+00  0.00000000E+00  0.00000000E+00
  0.00000000E+00  0.00000000E+00  0.00000000E+00
  0.00000000E+00  0.00000000E+00  0.00000000E+00
  0.00000000E+00  0.00000000E+00  0.00000000E+00
  0.00000000E+00  0.00000000E+00  0.00000000E+00
  0.00000000E+00  0.00000000E+00  0.00000000E+00
  0.00000000E+00  0.00000000E+00  0.00000000E+00
  0.00000000E+00  0.00000000E+00  0.00000000E+00
  0.00000000E+00  0.00000000E+00  0.00000000E+00
  0.00000000E+00  0.00000000E+00  0.00000000E+00
  0.00000000E+00  0.00000000E+00  0.00000000E+00
  0.00000000E+00  0.00000000E+00  0.00000000E+00
  0.00000000E+00  0.00000000E+00  0.00000000E+00
  0.00000000E+00  0.00000000E+00  0.00000000E+00
  0.00000000E+00  0.00000000E+00  0.00000000E+00
  0.00000000E+00  0.00000000E+00  0.00000000E+00
  0.00000000E+00  0.00000000E+00  0.00000000E+00
