MAPbI3                                  
   1.00000000000000     
    11.6672212355318230    0.1421637291905456    0.1279092348667172
     0.1236106849101610    8.8063108536209995    0.0487640525313113
     0.0806168431741509    0.0472857048642227   10.4280036160361274
   Pb   I    C    N    H 
     4    12     4     4    24
Direct
  0.2777149355828649  0.2544594642099138  0.2645343659245654
  0.3992434442817471  0.2428323911186943  0.6631274813771678
  0.9084879703868814  0.7173531243194157  0.1644447093021787
  0.7860162876138864  0.7632274649042778  0.7661336457972693
  0.1184782791286207  0.9411629561534414  0.2224120308540890
  0.9463552275346357  0.0257032515978698  0.8390859112597499
  0.2922407351855177  0.2725150634809484  0.9355667590543719
  0.1543986980174942  0.2249364265776914  0.5419609823248579
  0.4425361222049022  0.5169046835959896  0.3360449623199747
  0.6086181085034230  0.4659697150448407  0.7196886948635746
  0.4819502284317758  0.0419032548592488  0.3348418638097470
  0.9607280484581697  0.3756189386694943  0.2241598004482340
  0.9869150785913677  0.5475377704198041  0.8428070902415211
  0.4763177588298003  0.9113388728664176  0.7271066006075428
  0.6629369120087426  0.7314905407196591  0.0449152083443602
  0.8032530232227028  0.7592119700246136  0.4381542903256597
  0.3201011760038700  0.7153191076153402  0.0063608610335093
  0.6545719615467465  0.2220286314872643  0.0552119889942952
  0.8029544350208979  0.2053836711239165  0.5217287424458592
  0.1701399773070343  0.7188474151644318  0.5658586389411823
  0.2336115434303090  0.8059972203512030  0.9292644656157877
  0.7519088820059824  0.2925990052684380  0.9819655060636564
  0.7233919230326695  0.2949777106895271  0.4353197310851025
  0.2658275789031068  0.7920663373810343  0.4918126150800344
  0.3773330323615204  0.7947959809774283  0.0507610669986879
  0.3680608478381078  0.6387914479899778  0.9421175506302989
  0.2739706021687828  0.6510752805398794  0.0799270435337279
  0.1729574964949084  0.7372694128394489  0.8896467830352472
  0.1894916874890659  0.8827394568267921  0.9885794879835508
  0.2755588567247869  0.8659986674735825  0.8572767419163494
  0.6897424605642876  0.1388475183876809  0.1233521729375856
  0.6054303595157955  0.3117748364929823  0.1050268046966573
  0.5997956166936520  0.1651246959130501  0.9877170702805723
  0.8061194761521642  0.3484542998600098  0.0422540616946490
  0.7210654826785717  0.3680875960838413  0.9127491563214957
  0.8030733500785548  0.2107006287747657  0.9348028572716910
  0.8619593763665967  0.2841260500264334  0.5641826535569436
  0.7513261362808545  0.1509002407108660  0.5965466745775728
  0.8497164562876868  0.1202076309654876  0.4645133602302290
  0.7707757282451619  0.3447412185733726  0.3615814050450379
  0.6616380250364174  0.2270204702936139  0.3966088585028023
  0.6806278383486025  0.3800620028887378  0.4870096770456440
  0.2068947505031578  0.6377605697669407  0.6347403046907142
  0.1189347455173561  0.8074287492334374  0.6146885031016736
  0.1166294514476284  0.6589222659637231  0.4989936468443489
  0.3197715743830862  0.8502865761098783  0.5507349991169750
  0.2332637485290303  0.8660795319654709  0.4225576411010660
  0.3171665650610764  0.7111158836991694  0.4434725327722469
 
  0.00000000E+00  0.00000000E+00  0.00000000E+00
  0.00000000E+00  0.00000000E+00  0.00000000E+00
  0.00000000E+00  0.00000000E+00  0.00000000E+00
  0.00000000E+00  0.00000000E+00  0.00000000E+00
  0.00000000E+00  0.00000000E+00  0.00000000E+00
  0.00000000E+00  0.00000000E+00  0.00000000E+00
  0.00000000E+00  0.00000000E+00  0.00000000E+00
  0.00000000E+00  0.00000000E+00  0.00000000E+00
  0.00000000E+00  0.00000000E+00  0.00000000E+00
  0.00000000E+00  0.00000000E+00  0.00000000E+00
  0.00000000E+00  0.00000000E+00  0.00000000E+00
  0.00000000E+00  0.00000000E+00  0.00000000E+00
  0.00000000E+00  0.00000000E+00  0.00000000E+00
  0.00000000E+00  0.00000000E+00  0.00000000E+00
  0.00000000E+00  0.00000000E+00  0.00000000E+00
  0.00000000E+00  0.00000000E+00  0.00000000E+00
  0.00000000E+00  0.00000000E+00  0.00000000E+00
  0.00000000E+00  0.00000000E+00  0.00000000E+00
  0.00000000E+00  0.00000000E+00  0.00000000E+00
  0.00000000E+00  0.00000000E+00  0.00000000E+00
  0.00000000E+00  0.00000000E+00  0.00000000E+00
  0.00000000E+00  0.00000000E+00  0.00000000E+00
  0.00000000E+00  0.00000000E+00  0.00000000E+00
  0.00000000E+00  0.00000000E+00  0.00000000E+00
  0.00000000E+00  0.00000000E+00  0.00000000E+00
  0.00000000E+00  0.00000000E+00  0.00000000E+00
  0.00000000E+00  0.00000000E+00  0.00000000E+00
  0.00000000E+00  0.00000000E+00  0.00000000E+00
  0.00000000E+00  0.00000000E+00  0.00000000E+00
  0.00000000E+00  0.00000000E+00  0.00000000E+00
  0.00000000E+00  0.00000000E+00  0.00000000E+00
  0.00000000E+00  0.00000000E+00  0.00000000E+00
  0.00000000E+00  0.00000000E+00  0.00000000E+00
  0.00000000E+00  0.00000000E+00  0.00000000E+00
  0.00000000E+00  0.00000000E+00  0.00000000E+00
  0.00000000E+00  0.00000000E+00  0.00000000E+00
  0.00000000E+00  0.00000000E+00  0.00000000E+00
  0.00000000E+00  0.00000000E+00  0.00000000E+00
  0.00000000E+00  0.00000000E+00  0.00000000E+00
  0.00000000E+00  0.00000000E+00  0.00000000E+00
  0.00000000E+00  0.00000000E+00  0.00000000E+00
  0.00000000E+00  0.00000000E+00  0.00000000E+00
  0.00000000E+00  0.00000000E+00  0.00000000E+00
  0.00000000E+00  0.00000000E+00  0.00000000E+00
  0.00000000E+00  0.00000000E+00  0.00000000E+00
  0.00000000E+00  0.00000000E+00  0.00000000E+00
  0.00000000E+00  0.00000000E+00  0.00000000E+00
  0.00000000E+00  0.00000000E+00  0.00000000E+00
