MAPbI3                                  
   1.00000000000000     
     8.4415267927222395   -0.0033605594623621    0.0484233458010302
    -0.0035230194191334    9.1482887269608764   -0.0676552552159737
     0.0720164281947751   -0.1022271464527925   13.1590397803085519
   Pb   I    C    N    H 
     4    12     4     4    24
Direct
  0.2475890239961418  0.2289883600937891  0.2543322908101959
  0.2487099453755040  0.2341124426974888  0.7570175820495769
  0.7573408224956564  0.7295601729188261  0.2548536400918832
  0.7437694389771982  0.7343583897639853  0.7568985048010202
  0.0875021676326826  0.9018073019920003  0.2486001218574705
  0.9302203590427454  0.0378037584588827  0.7710809415451884
  0.2384793595751936  0.2207682169412998  0.0097418791741416
  0.2519503663873915  0.2144436064307357  0.5099402001112961
  0.4336446914596052  0.5345981371498572  0.2721666321766956
  0.5700258976789971  0.4169914351065632  0.7554630827920112
  0.5740587021272635  0.0359917381062505  0.2709190955811533
  0.9244515467733622  0.4073152443015941  0.2551073404338290
  0.0637350502962064  0.5396172087865378  0.7674856039090290
  0.4234208177834274  0.9181051848815074  0.7622300848323748
  0.7509850052770958  0.7192653940079081  0.0092838495262346
  0.7476730786348653  0.7210713894585236  0.5099489447435388
  0.2769429031312512  0.6832827397720046  0.0156459057254220
  0.7150174223969394  0.2143511227573728  0.0157222559762318
  0.7723993530701114  0.2119005075514750  0.5226711029873718
  0.2301716881837612  0.7128960336416399  0.5237957715826582
  0.1774854026201662  0.8066947657696153  0.9768642421836276
  0.8266373619205497  0.3215138890122458  0.9669123979500999
  0.6675919221455079  0.3216274268216562  0.4721080386774602
  0.3348722964979888  0.8201548533380526  0.4691214260178244
  0.3803511157679463  0.7302737059607874  0.0529857467447354
  0.3127735843706034  0.6143377778564173  0.9508840632485818
  0.2059137087685932  0.6212156684907378  0.0698492672144678
  0.0710867546702708  0.7684449772894910  0.9488393201609321
  0.1513846982983686  0.8807472703811678  0.0348209377615773
  0.2365440543008535  0.8607916605446391  0.9188208419999410
  0.7434674981269038  0.1048966791267527  0.9864585698414758
  0.7309694264854814  0.2206630542903495  0.0978319666051246
  0.5941184433505656  0.2440890956600832  0.9958899626931770
  0.9439170038847402  0.2971049316940452  0.9829716783617956
  0.8045178779794885  0.4278362484148016  0.9917459603122759
  0.8140751693007530  0.3198839963093197  0.8888576366348794
  0.7392730294013284  0.2075429362885211  0.6029201641156230
  0.7549907992511765  0.1056762892614550  0.4852290326504805
  0.8952362162869953  0.2475324358316413  0.5138578426783079
  0.6833495995754025  0.4258939632062748  0.5022681590194886
  0.6938581277590593  0.3270280990107071  0.3952234390562335
  0.5486988289691960  0.2944762311349519  0.4805600428978513
  0.2577072267893182  0.6030328279716010  0.4949155644614465
  0.2539215783887129  0.7220194835659013  0.6049520782115735
  0.1068453987374705  0.7402062615922717  0.5085449974046422
  0.4538906015074024  0.7983254837040840  0.4814069791218709
  0.3126296778168153  0.9269274115157159  0.4929664892835425
  0.3158069567329795  0.8155301911383773  0.3916363239836390
 
  0.00000000E+00  0.00000000E+00  0.00000000E+00
  0.00000000E+00  0.00000000E+00  0.00000000E+00
  0.00000000E+00  0.00000000E+00  0.00000000E+00
  0.00000000E+00  0.00000000E+00  0.00000000E+00
  0.00000000E+00  0.00000000E+00  0.00000000E+00
  0.00000000E+00  0.00000000E+00  0.00000000E+00
  0.00000000E+00  0.00000000E+00  0.00000000E+00
  0.00000000E+00  0.00000000E+00  0.00000000E+00
  0.00000000E+00  0.00000000E+00  0.00000000E+00
  0.00000000E+00  0.00000000E+00  0.00000000E+00
  0.00000000E+00  0.00000000E+00  0.00000000E+00
  0.00000000E+00  0.00000000E+00  0.00000000E+00
  0.00000000E+00  0.00000000E+00  0.00000000E+00
  0.00000000E+00  0.00000000E+00  0.00000000E+00
  0.00000000E+00  0.00000000E+00  0.00000000E+00
  0.00000000E+00  0.00000000E+00  0.00000000E+00
  0.00000000E+00  0.00000000E+00  0.00000000E+00
  0.00000000E+00  0.00000000E+00  0.00000000E+00
  0.00000000E+00  0.00000000E+00  0.00000000E+00
  0.00000000E+00  0.00000000E+00  0.00000000E+00
  0.00000000E+00  0.00000000E+00  0.00000000E+00
  0.00000000E+00  0.00000000E+00  0.00000000E+00
  0.00000000E+00  0.00000000E+00  0.00000000E+00
  0.00000000E+00  0.00000000E+00  0.00000000E+00
  0.00000000E+00  0.00000000E+00  0.00000000E+00
  0.00000000E+00  0.00000000E+00  0.00000000E+00
  0.00000000E+00  0.00000000E+00  0.00000000E+00
  0.00000000E+00  0.00000000E+00  0.00000000E+00
  0.00000000E+00  0.00000000E+00  0.00000000E+00
  0.00000000E+00  0.00000000E+00  0.00000000E+00
  0.00000000E+00  0.00000000E+00  0.00000000E+00
  0.00000000E+00  0.00000000E+00  0.00000000E+00
  0.00000000E+00  0.00000000E+00  0.00000000E+00
  0.00000000E+00  0.00000000E+00  0.00000000E+00
  0.00000000E+00  0.00000000E+00  0.00000000E+00
  0.00000000E+00  0.00000000E+00  0.00000000E+00
  0.00000000E+00  0.00000000E+00  0.00000000E+00
  0.00000000E+00  0.00000000E+00  0.00000000E+00
  0.00000000E+00  0.00000000E+00  0.00000000E+00
  0.00000000E+00  0.00000000E+00  0.00000000E+00
  0.00000000E+00  0.00000000E+00  0.00000000E+00
  0.00000000E+00  0.00000000E+00  0.00000000E+00
  0.00000000E+00  0.00000000E+00  0.00000000E+00
  0.00000000E+00  0.00000000E+00  0.00000000E+00
  0.00000000E+00  0.00000000E+00  0.00000000E+00
  0.00000000E+00  0.00000000E+00  0.00000000E+00
  0.00000000E+00  0.00000000E+00  0.00000000E+00
  0.00000000E+00  0.00000000E+00  0.00000000E+00
