MAPbI3                                  
   1.00000000000000     
     9.6605698745233486   -0.0010724960912363   -0.0058762229896189
    -0.0002065223506900    8.4219854091730717   -0.2431980267172980
    -0.0049122299071397   -0.3527456168189563   12.9394555315716371
   Pb   I    C    N    H 
     4    12     4     4    24
Direct
  0.2422962515791684  0.2309979940678986  0.2546748867823491
  0.2523427868970077  0.2408955631780338  0.7558571995910081
  0.7604395814716355  0.7295347874046904  0.2551420330185183
  0.7378955511567694  0.7397995989928772  0.7567642639233831
  0.0693968434285268  0.8936293516026225  0.2477457465932403
  0.9559276527077686  0.0384513454646977  0.7645023787481199
  0.2462204707495178  0.2310115862947015  0.0063939391974754
  0.2441286558928809  0.2248530867932288  0.5057305044503302
  0.4589443764702730  0.5314838753705067  0.2650447900164334
  0.5573525379733248  0.4119127323780568  0.7520438671277133
  0.5408293426799547  0.0314184400327073  0.2648432744217079
  0.9309938442969533  0.3936672548896857  0.2530365072271143
  0.0390050676284540  0.5399739675594862  0.7657854697468565
  0.4367552403379525  0.9121605897959013  0.7504655473406261
  0.7522441596851248  0.7269745250544514  0.0076968015972912
  0.7485921416790314  0.7256380307531477  0.5073473071515793
  0.3056302724915075  0.7227913803504422  0.0132060413010100
  0.7029660326309487  0.2202354474532152  0.0147233463626901
  0.7812660920242716  0.2225876301796339  0.5211854528264921
  0.2148023184819601  0.7205694128150594  0.5168778523240637
  0.1741507568375442  0.7994988390516684  0.9775392751471472
  0.8315834561127174  0.3008030407308944  0.9774781358564306
  0.6565520767913401  0.3024398990229191  0.4769092334753981
  0.3396454607614763  0.8026267283803089  0.4748364856503907
  0.3537446319683552  0.8022083314701605  0.0724907444259947
  0.3741807178854171  0.7042576203740251  0.9465342573106338
  0.2788871243305787  0.6096193498030559  0.0451496289363158
  0.1280059067364334  0.7320179869435192  0.9170315062162401
  0.1045915142351456  0.8131610751202341  0.0382894141161362
  0.1934129674994330  0.9121644525361293  0.9529575266417195
  0.7313910397645560  0.1019118035587671  0.0378321683449319
  0.6613969156524956  0.2913370952250965  0.0807176694360255
  0.6282160638428703  0.2122997019306755  0.9512078690049748
  0.9060517233542787  0.3079079380215754  0.0350878551462716
  0.8105606868177373  0.4164497401946177  0.9589828879816090
  0.8728488524154143  0.2390974723364659  0.9126921971939698
  0.8103368899191451  0.2875488398746726  0.5932781194019212
  0.7534612323317861  0.1001997660274788  0.5357849616376710
  0.8651217695510532  0.2251057422128537  0.4646651263463746
  0.6779234696045925  0.4201871239307332  0.4634986020331557
  0.6247459888349604  0.2442157675625773  0.4079233872645128
  0.5745271253035032  0.3033960833225090  0.5281596530593428
  0.2436901298210887  0.5986157045138129  0.5318685412837441
  0.1829401826347776  0.7847989498600787  0.5885159815164859
  0.1325116861398832  0.7215705727035615  0.4589272965363754
  0.4204543155644259  0.8044255786651191  0.5272955546665170
  0.3173941587632272  0.9200995398687147  0.4613626084154732
  0.3736459362627977  0.7451446563267006  0.4062641032062810
 
  0.00000000E+00  0.00000000E+00  0.00000000E+00
  0.00000000E+00  0.00000000E+00  0.00000000E+00
  0.00000000E+00  0.00000000E+00  0.00000000E+00
  0.00000000E+00  0.00000000E+00  0.00000000E+00
  0.00000000E+00  0.00000000E+00  0.00000000E+00
  0.00000000E+00  0.00000000E+00  0.00000000E+00
  0.00000000E+00  0.00000000E+00  0.00000000E+00
  0.00000000E+00  0.00000000E+00  0.00000000E+00
  0.00000000E+00  0.00000000E+00  0.00000000E+00
  0.00000000E+00  0.00000000E+00  0.00000000E+00
  0.00000000E+00  0.00000000E+00  0.00000000E+00
  0.00000000E+00  0.00000000E+00  0.00000000E+00
  0.00000000E+00  0.00000000E+00  0.00000000E+00
  0.00000000E+00  0.00000000E+00  0.00000000E+00
  0.00000000E+00  0.00000000E+00  0.00000000E+00
  0.00000000E+00  0.00000000E+00  0.00000000E+00
  0.00000000E+00  0.00000000E+00  0.00000000E+00
  0.00000000E+00  0.00000000E+00  0.00000000E+00
  0.00000000E+00  0.00000000E+00  0.00000000E+00
  0.00000000E+00  0.00000000E+00  0.00000000E+00
  0.00000000E+00  0.00000000E+00  0.00000000E+00
  0.00000000E+00  0.00000000E+00  0.00000000E+00
  0.00000000E+00  0.00000000E+00  0.00000000E+00
  0.00000000E+00  0.00000000E+00  0.00000000E+00
  0.00000000E+00  0.00000000E+00  0.00000000E+00
  0.00000000E+00  0.00000000E+00  0.00000000E+00
  0.00000000E+00  0.00000000E+00  0.00000000E+00
  0.00000000E+00  0.00000000E+00  0.00000000E+00
  0.00000000E+00  0.00000000E+00  0.00000000E+00
  0.00000000E+00  0.00000000E+00  0.00000000E+00
  0.00000000E+00  0.00000000E+00  0.00000000E+00
  0.00000000E+00  0.00000000E+00  0.00000000E+00
  0.00000000E+00  0.00000000E+00  0.00000000E+00
  0.00000000E+00  0.00000000E+00  0.00000000E+00
  0.00000000E+00  0.00000000E+00  0.00000000E+00
  0.00000000E+00  0.00000000E+00  0.00000000E+00
  0.00000000E+00  0.00000000E+00  0.00000000E+00
  0.00000000E+00  0.00000000E+00  0.00000000E+00
  0.00000000E+00  0.00000000E+00  0.00000000E+00
  0.00000000E+00  0.00000000E+00  0.00000000E+00
  0.00000000E+00  0.00000000E+00  0.00000000E+00
  0.00000000E+00  0.00000000E+00  0.00000000E+00
  0.00000000E+00  0.00000000E+00  0.00000000E+00
  0.00000000E+00  0.00000000E+00  0.00000000E+00
  0.00000000E+00  0.00000000E+00  0.00000000E+00
  0.00000000E+00  0.00000000E+00  0.00000000E+00
  0.00000000E+00  0.00000000E+00  0.00000000E+00
  0.00000000E+00  0.00000000E+00  0.00000000E+00
