MAPbI3                                  
   1.00000000000000     
     6.3436127333110264    0.0016106680577853    0.0038492755959845
    -0.0006346584521756   10.1538865829864395    0.9137875807691328
    -0.0102556642120328    1.2242739455295770   16.4219224192728674
   Pb   I    C    N    H 
     4    12     4     4    24
Direct
  0.2247866945437854  0.2557679468116245  0.2520271369280767
  0.2751784649621740  0.2556193887712621  0.7513709090300796
  0.6987493064356772  0.7479657797053270  0.2132781126778358
  0.8019174288810832  0.7492097241727620  0.7135909145857086
  0.1488579539039844  0.8939491107577157  0.2162775014721252
  0.8516048674142023  0.1047597128222853  0.8168663573748945
  0.3622575704318292  0.3233319642397015  0.0716050540760985
  0.1383671936445076  0.3242459695663671  0.5711686853738344
  0.3676660928787141  0.5041914895141507  0.3289708228657254
  0.6328732820109630  0.4888746337075737  0.6715712648083099
  0.6491043137828464  0.1052926837951079  0.3173436361548713
  0.8667239409720049  0.4874769164847157  0.1720062720204954
  0.1301714380083623  0.5039794203461855  0.8288119527049871
  0.3509971556452947  0.8952014927755971  0.7164827557729322
  0.6482978799783143  0.8389316502504104  0.0266580206396284
  0.8519148460161109  0.8400094536619762  0.5271614698213510
  0.1529930660143785  0.6888576677565009  0.9993929612366697
  0.8573837681056731  0.1643124662615214  0.0532329208074627
  0.6431044439423113  0.1661270316745941  0.5528743855705289
  0.3466865580059409  0.6897841154355624  0.4989100533060928
  0.1657015716285719  0.8112683787237974  0.9344851568870985
  0.8605691396408476  0.2882286454244127  0.9900706650152782
  0.6398836924745509  0.2902433971530760  0.4898647915428189
  0.3338470324344397  0.8131303686443865  0.4346844935069251
  0.1477288458774430  0.7209344273133630  0.0593999872359484
  0.2922362346751777  0.6281086216986944  0.9943954547251989
  0.0096671220119626  0.6351687261292239  0.9891591981153305
  0.1924421073911661  0.7891442217720637  0.8761620000471242
  0.0291766672611563  0.8674088662780274  0.9327657608393508
  0.2921834166997564  0.8686518361014830  0.9477781890987541
  0.7144714799854996  0.1093405333397854  0.0445223555597949
  0.9974416940792252  0.1058826531664216  0.0447735460898630
  0.8574325787717031  0.1928202540656119  0.1143085356259184
  0.8522566828088948  0.2647696904271721  0.9311504321552729
  0.9991783626472200  0.3405088862001729  0.9945458394856391
  0.7333457152047522  0.3477626636335557  0.9990906248991345
  0.5026521081525002  0.1080473342490528  0.5444753976955776
  0.7855936630554116  0.1109140587125939  0.5438956124332636
  0.6438616036728315  0.1944179375640251  0.6140108116398766
  0.5013003674055715  0.3425521206608444  0.4944032132683037
  0.7671332927358844  0.3496510358378968  0.4989712318775262
  0.6481513128568300  0.2669884245784757  0.4308936243708562
  0.2072350569341771  0.6293912526479888  0.4936306973235489
  0.4898364649146494  0.6362123099989758  0.4882357673803548
  0.3523792367928475  0.7207813902114959  0.5592264659134135
  0.3061864781774721  0.7921398682560923  0.3761452272448542
  0.4706445075333610  0.8689280814833626  0.4330837360718412
  0.2078292985978122  0.8704113972169001  0.4486179967234578
 
  0.00000000E+00  0.00000000E+00  0.00000000E+00
  0.00000000E+00  0.00000000E+00  0.00000000E+00
  0.00000000E+00  0.00000000E+00  0.00000000E+00
  0.00000000E+00  0.00000000E+00  0.00000000E+00
  0.00000000E+00  0.00000000E+00  0.00000000E+00
  0.00000000E+00  0.00000000E+00  0.00000000E+00
  0.00000000E+00  0.00000000E+00  0.00000000E+00
  0.00000000E+00  0.00000000E+00  0.00000000E+00
  0.00000000E+00  0.00000000E+00  0.00000000E+00
  0.00000000E+00  0.00000000E+00  0.00000000E+00
  0.00000000E+00  0.00000000E+00  0.00000000E+00
  0.00000000E+00  0.00000000E+00  0.00000000E+00
  0.00000000E+00  0.00000000E+00  0.00000000E+00
  0.00000000E+00  0.00000000E+00  0.00000000E+00
  0.00000000E+00  0.00000000E+00  0.00000000E+00
  0.00000000E+00  0.00000000E+00  0.00000000E+00
  0.00000000E+00  0.00000000E+00  0.00000000E+00
  0.00000000E+00  0.00000000E+00  0.00000000E+00
  0.00000000E+00  0.00000000E+00  0.00000000E+00
  0.00000000E+00  0.00000000E+00  0.00000000E+00
  0.00000000E+00  0.00000000E+00  0.00000000E+00
  0.00000000E+00  0.00000000E+00  0.00000000E+00
  0.00000000E+00  0.00000000E+00  0.00000000E+00
  0.00000000E+00  0.00000000E+00  0.00000000E+00
  0.00000000E+00  0.00000000E+00  0.00000000E+00
  0.00000000E+00  0.00000000E+00  0.00000000E+00
  0.00000000E+00  0.00000000E+00  0.00000000E+00
  0.00000000E+00  0.00000000E+00  0.00000000E+00
  0.00000000E+00  0.00000000E+00  0.00000000E+00
  0.00000000E+00  0.00000000E+00  0.00000000E+00
  0.00000000E+00  0.00000000E+00  0.00000000E+00
  0.00000000E+00  0.00000000E+00  0.00000000E+00
  0.00000000E+00  0.00000000E+00  0.00000000E+00
  0.00000000E+00  0.00000000E+00  0.00000000E+00
  0.00000000E+00  0.00000000E+00  0.00000000E+00
  0.00000000E+00  0.00000000E+00  0.00000000E+00
  0.00000000E+00  0.00000000E+00  0.00000000E+00
  0.00000000E+00  0.00000000E+00  0.00000000E+00
  0.00000000E+00  0.00000000E+00  0.00000000E+00
  0.00000000E+00  0.00000000E+00  0.00000000E+00
  0.00000000E+00  0.00000000E+00  0.00000000E+00
  0.00000000E+00  0.00000000E+00  0.00000000E+00
  0.00000000E+00  0.00000000E+00  0.00000000E+00
  0.00000000E+00  0.00000000E+00  0.00000000E+00
  0.00000000E+00  0.00000000E+00  0.00000000E+00
  0.00000000E+00  0.00000000E+00  0.00000000E+00
  0.00000000E+00  0.00000000E+00  0.00000000E+00
  0.00000000E+00  0.00000000E+00  0.00000000E+00
