MAPbI3                                  
   1.00000000000000     
    10.6740526196259449    0.2052540796182832   -0.0674256018709233
     0.1687081357351143    8.3348933965861463   -0.1901806510477306
    -0.0892558073577668   -0.2812559080238375   12.4454158339236560
   Pb   I    C    N    H 
     4    12     4     4    24
Direct
  0.2878296313156845  0.2450715142717917  0.2625898099689460
  0.3066697936844110  0.2403043039042877  0.7466703178074262
  0.8089157362381021  0.7383392676013327  0.2473407698445511
  0.7877318995267254  0.7453126551759803  0.7616818235566879
  0.0616455313999657  0.9083361810178209  0.2314724896985940
  0.9601152994467446  0.0316179576033847  0.7873961211979960
  0.2894449773531525  0.2254620131676374  0.0040379679557846
  0.1879698960621139  0.2221812759541447  0.5069261281698024
  0.4598387298541258  0.5318807930978494  0.2871124797102118
  0.5563830267570261  0.4157804786332592  0.7276905341725433
  0.5232255427955096  0.0184927151777046  0.2948252442749479
  0.9399070474757552  0.4025316271777024  0.2360600052936002
  0.0218804571543693  0.5177299596905222  0.7966825037207774
  0.4454303754818892  0.9087439373418725  0.7359482044625496
  0.6904770602898346  0.7240304070826031  0.0064405068913589
  0.7937593065710546  0.7204744639057038  0.5032259042524555
  0.3101457030653398  0.7232692005186561  0.0112083526750983
  0.6816080765542448  0.2216756367867677  0.0192285686413213
  0.8063928986581043  0.2157716757946040  0.5115296018576336
  0.1918465442689488  0.7169087955274462  0.5229866909234316
  0.1918098074586034  0.8055439745719780  0.9703701491138913
  0.7956002162978608  0.3010833708424088  0.9801375286656845
  0.6917684462517666  0.3039702542226768  0.4688126961084609
  0.3010233846673122  0.8030819216096227  0.4809657270755130
  0.3560725856490877  0.8058615919883809  0.0684032147275449
  0.3712166088913976  0.6932364411125543  0.9429361496644526
  0.2848274800837103  0.6148826220889483  0.0504312795895998
  0.1447235112892176  0.7331116184171472  0.9141981525798153
  0.1317424012338218  0.8344160014057413  0.0340572108261019
  0.2107206141391151  0.9124355094716566  0.9362686102367701
  0.7113110799836194  0.1069922379560082  0.0522469275292519
  0.6372155546625113  0.3009854202222647  0.0811442702845996
  0.6172790352069327  0.2026416173158715  0.9512425909929186
  0.8589161797748812  0.3203921857315032  0.0432863401697863
  0.7715672242007713  0.4131568374738507  0.9519840821052680
  0.8408589047206491  0.2320029979594425  0.9195510427601365
  0.8534917390698736  0.2955889542256743  0.5697877969007957
  0.7766200755314933  0.1087072518410063  0.5498777322557900
  0.8684331188235247  0.1829123486665094  0.4443472295065801
  0.7151144599126941  0.4094054608043729  0.4349719365909264
  0.6438081915954611  0.2338298079330353  0.4118690332638247
  0.6309421864833408  0.3361098921963309  0.5313779675128025
  0.2268495059468133  0.6031476679111507  0.5541884306641225
  0.1477341797927222  0.7928279142304906  0.5868140793822646
  0.1253155156984913  0.6955231419067577  0.4568954450762018
  0.3659899109711651  0.8252692545794977  0.5423744177555161
  0.2720247411028489  0.9141423737403670  0.4537899453134171
  0.3458078066071986  0.7365224701436561  0.4189639882723009
 
  0.00000000E+00  0.00000000E+00  0.00000000E+00
  0.00000000E+00  0.00000000E+00  0.00000000E+00
  0.00000000E+00  0.00000000E+00  0.00000000E+00
  0.00000000E+00  0.00000000E+00  0.00000000E+00
  0.00000000E+00  0.00000000E+00  0.00000000E+00
  0.00000000E+00  0.00000000E+00  0.00000000E+00
  0.00000000E+00  0.00000000E+00  0.00000000E+00
  0.00000000E+00  0.00000000E+00  0.00000000E+00
  0.00000000E+00  0.00000000E+00  0.00000000E+00
  0.00000000E+00  0.00000000E+00  0.00000000E+00
  0.00000000E+00  0.00000000E+00  0.00000000E+00
  0.00000000E+00  0.00000000E+00  0.00000000E+00
  0.00000000E+00  0.00000000E+00  0.00000000E+00
  0.00000000E+00  0.00000000E+00  0.00000000E+00
  0.00000000E+00  0.00000000E+00  0.00000000E+00
  0.00000000E+00  0.00000000E+00  0.00000000E+00
  0.00000000E+00  0.00000000E+00  0.00000000E+00
  0.00000000E+00  0.00000000E+00  0.00000000E+00
  0.00000000E+00  0.00000000E+00  0.00000000E+00
  0.00000000E+00  0.00000000E+00  0.00000000E+00
  0.00000000E+00  0.00000000E+00  0.00000000E+00
  0.00000000E+00  0.00000000E+00  0.00000000E+00
  0.00000000E+00  0.00000000E+00  0.00000000E+00
  0.00000000E+00  0.00000000E+00  0.00000000E+00
  0.00000000E+00  0.00000000E+00  0.00000000E+00
  0.00000000E+00  0.00000000E+00  0.00000000E+00
  0.00000000E+00  0.00000000E+00  0.00000000E+00
  0.00000000E+00  0.00000000E+00  0.00000000E+00
  0.00000000E+00  0.00000000E+00  0.00000000E+00
  0.00000000E+00  0.00000000E+00  0.00000000E+00
  0.00000000E+00  0.00000000E+00  0.00000000E+00
  0.00000000E+00  0.00000000E+00  0.00000000E+00
  0.00000000E+00  0.00000000E+00  0.00000000E+00
  0.00000000E+00  0.00000000E+00  0.00000000E+00
  0.00000000E+00  0.00000000E+00  0.00000000E+00
  0.00000000E+00  0.00000000E+00  0.00000000E+00
  0.00000000E+00  0.00000000E+00  0.00000000E+00
  0.00000000E+00  0.00000000E+00  0.00000000E+00
  0.00000000E+00  0.00000000E+00  0.00000000E+00
  0.00000000E+00  0.00000000E+00  0.00000000E+00
  0.00000000E+00  0.00000000E+00  0.00000000E+00
  0.00000000E+00  0.00000000E+00  0.00000000E+00
  0.00000000E+00  0.00000000E+00  0.00000000E+00
  0.00000000E+00  0.00000000E+00  0.00000000E+00
  0.00000000E+00  0.00000000E+00  0.00000000E+00
  0.00000000E+00  0.00000000E+00  0.00000000E+00
  0.00000000E+00  0.00000000E+00  0.00000000E+00
  0.00000000E+00  0.00000000E+00  0.00000000E+00
