MAPbI3                                  
   1.00000000000000     
     9.1905678478999526   -0.0003374248656262    0.0214111292143710
    -0.0000965084735605    8.6973856420204854   -0.1396247949818020
     0.0326771410461929   -0.2029853480840054   13.0142825211823503
   Pb   I    C    N    H 
     4    12     4     4    24
Direct
  0.2437404386263257  0.2294713546418748  0.2551308829379363
  0.2522304273731686  0.2394085162720195  0.7580930619611927
  0.7583329109357539  0.7302092124422725  0.2563890447169867
  0.7392539842204658  0.7410334445315649  0.7588133376329305
  0.0762687800029449  0.8962739589237245  0.2512610147491931
  0.9468521502989504  0.0401539716494055  0.7659531475543572
  0.2333104906268411  0.2302031501797576  0.0095688290367906
  0.2571985649248962  0.2219371668913771  0.5098559974318172
  0.4508452152657778  0.5325052507510573  0.2678321908707716
  0.5592364765383798  0.4179673437424730  0.7612183998558986
  0.5526375106485381  0.0336993099333075  0.2658374396619982
  0.9312360881097300  0.4015827772533844  0.2614877303176739
  0.0442424656657862  0.5421630814349462  0.7664641456240098
  0.4307908318938200  0.9190038510589960  0.7653824315595612
  0.7532267896392697  0.7260581261772092  0.0111642970605692
  0.7388177034591772  0.7281602923034962  0.5112209238253125
  0.2930253494974083  0.7018725938840168  0.0146934140054107
  0.7142625159494053  0.2162591362035303  0.0161216819776162
  0.7703961938173765  0.2142151281881922  0.5240642521449679
  0.2267243754560700  0.7133124708656617  0.5238777041296857
  0.1743386675521375  0.8017305799669674  0.9730881360081218
  0.8304783763080057  0.3141080201311784  0.9686865664698135
  0.6608541304980934  0.3132110908333502  0.4710626595304236
  0.3367606266237436  0.8101575352901946  0.4690564094541235
  0.3650043224867098  0.7743589669843013  0.0619988869974943
  0.3525444213640454  0.6493973285079578  0.9497056795665194
  0.2424844249671938  0.6138932471923837  0.0610224075219218
  0.1080069449701420  0.7383919880292236  0.9231800750399555
  0.1117089267535854  0.8485063008610260  0.0324760215621844
  0.2180489289905109  0.8906871452859834  0.9322088879184549
  0.7401269905731210  0.0954947411729060  0.9989097420022618
  0.7138462812465978  0.2397099612790992  0.0989876288233000
  0.6097294441759589  0.2465013061024895  0.9825745305313952
  0.9324428417531293  0.2913234913202419  0.9982471553658494
  0.8094937785620817  0.4306021392681891  0.9816233850879513
  0.8368904242214047  0.2928998456091984  0.8901819066664287
  0.7546996452749308  0.2293748811958481  0.6068943116029171
  0.7521071863237253  0.0945392721456689  0.4994068284678164
  0.8793078553317428  0.2513169131888672  0.5014895152963706
  0.6775302394111686  0.4291232318050697  0.4888543720719391
  0.6683448185449907  0.2982486137602923  0.3921183267070706
  0.5550548074195218  0.2864125119738303  0.4918541731835421
  0.2508427056965653  0.5922261565630335  0.5063259127446175
  0.2352793159029072  0.7388099573560131  0.6062530862941540
  0.1184976143038060  0.7426641048692547  0.4959963575590952
  0.4419110545745480  0.7882438502457123  0.4930757141255497
  0.3166424757851778  0.9267759798623841  0.4820279980120342
  0.3343954874344199  0.7874967018710378  0.3906113983340481
 
  0.00000000E+00  0.00000000E+00  0.00000000E+00
  0.00000000E+00  0.00000000E+00  0.00000000E+00
  0.00000000E+00  0.00000000E+00  0.00000000E+00
  0.00000000E+00  0.00000000E+00  0.00000000E+00
  0.00000000E+00  0.00000000E+00  0.00000000E+00
  0.00000000E+00  0.00000000E+00  0.00000000E+00
  0.00000000E+00  0.00000000E+00  0.00000000E+00
  0.00000000E+00  0.00000000E+00  0.00000000E+00
  0.00000000E+00  0.00000000E+00  0.00000000E+00
  0.00000000E+00  0.00000000E+00  0.00000000E+00
  0.00000000E+00  0.00000000E+00  0.00000000E+00
  0.00000000E+00  0.00000000E+00  0.00000000E+00
  0.00000000E+00  0.00000000E+00  0.00000000E+00
  0.00000000E+00  0.00000000E+00  0.00000000E+00
  0.00000000E+00  0.00000000E+00  0.00000000E+00
  0.00000000E+00  0.00000000E+00  0.00000000E+00
  0.00000000E+00  0.00000000E+00  0.00000000E+00
  0.00000000E+00  0.00000000E+00  0.00000000E+00
  0.00000000E+00  0.00000000E+00  0.00000000E+00
  0.00000000E+00  0.00000000E+00  0.00000000E+00
  0.00000000E+00  0.00000000E+00  0.00000000E+00
  0.00000000E+00  0.00000000E+00  0.00000000E+00
  0.00000000E+00  0.00000000E+00  0.00000000E+00
  0.00000000E+00  0.00000000E+00  0.00000000E+00
  0.00000000E+00  0.00000000E+00  0.00000000E+00
  0.00000000E+00  0.00000000E+00  0.00000000E+00
  0.00000000E+00  0.00000000E+00  0.00000000E+00
  0.00000000E+00  0.00000000E+00  0.00000000E+00
  0.00000000E+00  0.00000000E+00  0.00000000E+00
  0.00000000E+00  0.00000000E+00  0.00000000E+00
  0.00000000E+00  0.00000000E+00  0.00000000E+00
  0.00000000E+00  0.00000000E+00  0.00000000E+00
  0.00000000E+00  0.00000000E+00  0.00000000E+00
  0.00000000E+00  0.00000000E+00  0.00000000E+00
  0.00000000E+00  0.00000000E+00  0.00000000E+00
  0.00000000E+00  0.00000000E+00  0.00000000E+00
  0.00000000E+00  0.00000000E+00  0.00000000E+00
  0.00000000E+00  0.00000000E+00  0.00000000E+00
  0.00000000E+00  0.00000000E+00  0.00000000E+00
  0.00000000E+00  0.00000000E+00  0.00000000E+00
  0.00000000E+00  0.00000000E+00  0.00000000E+00
  0.00000000E+00  0.00000000E+00  0.00000000E+00
  0.00000000E+00  0.00000000E+00  0.00000000E+00
  0.00000000E+00  0.00000000E+00  0.00000000E+00
  0.00000000E+00  0.00000000E+00  0.00000000E+00
  0.00000000E+00  0.00000000E+00  0.00000000E+00
  0.00000000E+00  0.00000000E+00  0.00000000E+00
  0.00000000E+00  0.00000000E+00  0.00000000E+00
