MAPbI3                                  
   1.00000000000000     
     7.0125425958751064    0.0038967108815711    0.0121011221444615
     0.0037554139784317    9.8401722720755078    0.4429790487517172
     0.0111526378005797    0.6169354591900090   14.1292770620722159
   Pb   I    C    N    H 
     4    12     4     4    24
Direct
  0.2525339586753826  0.2497172439445634  0.2357244659896058
  0.2468524062628439  0.2497183389340124  0.7362110794899213
  0.7637538508995200  0.7523114353619013  0.7269553876494615
  0.7362816575133604  0.7537415288597138  0.2291891363867002
  0.1300753030674817  0.9317933341297131  0.2133748356114705
  0.8793132376823997  0.0776048891894099  0.7946120542502979
  0.3154070106627184  0.2863678882926479  0.0172510525189859
  0.1848211579812160  0.2862590593411627  0.5177937234400994
  0.3869004780536289  0.5572420134688104  0.3006260313022649
  0.6233798157473951  0.4512854702590112  0.7018873940797914
  0.6205064810033164  0.0775703287920500  0.2944784061808779
  0.8769413562325651  0.4511330133660514  0.2030294880484283
  0.1123252972553144  0.5569363661997252  0.8010833870368863
  0.3703831813206333  0.9312614550287417  0.7130208245256933
  0.6944170959737411  0.7944105798175148  0.0092156822778253
  0.8056900889151215  0.7933530520666224  0.5069668548640810
  0.2107361839760701  0.6750774913719418  0.0297171484077401
  0.8011257881034902  0.1780508208334757  0.0314201114952167
  0.6990769570874311  0.1753300341701262  0.5313182294842970
  0.2893304684871573  0.6747545008264311  0.5295791417304090
  0.2026006055101291  0.8095007735862139  0.9697814758740863
  0.8056377838156203  0.3123223415491993  0.9714839554824127
  0.6942191437782592  0.3095650161347622  0.4712945124310656
  0.2975387260197130  0.8090386581516391  0.4695332777910838
  0.2365729906283462  0.6955995583980181  0.1030967077827599
  0.3257564568398149  0.6143869332290436  0.0032420550968530
  0.0741156844786686  0.6242825617262927  0.0234011122577623
  0.1995216638760960  0.7941886423468639  0.8983029165991133
  0.0812271753959033  0.8629745094609902  0.9852234337111676
  0.3225666180117474  0.8666689487381382  0.9812648036309933
  0.6900841257480945  0.1150857433729748  0.0041394344161952
  0.9402388565981159  0.1298756259464959  0.0261113091477012
  0.7703631681810582  0.1980804644022046  0.1044967175848460
  0.8207285549113016  0.2964416586442877  0.9004189140124769
  0.9183510577583137  0.3714834735402945  0.9902812498330904
  0.6790503260254820  0.3641999162834508  0.9795620793078919
  0.5608749752433388  0.1263534724718850  0.5254404886038032
  0.8119310714936602  0.1129902109207413  0.5045982062568957
  0.7273255014515484  0.1955794020770399  0.6045233033836515
  0.5787634351396581  0.3673618504109664  0.4889514321293530
  0.8188684025974271  0.3628802764587677  0.4804538703074959
  0.6830639128357271  0.2933248495234071  0.4001193727796944
  0.1743883621269133  0.6141358750094397  0.5033661108422206
  0.4259353784445062  0.6237216557563978  0.5230261853529762
  0.2633406240001150  0.6954196009595659  0.6029977064150885
  0.3007036302676814  0.7934289717800487  0.3980749372238834
  0.4188528705247744  0.8624703961242884  0.4846011484179809
  0.1775291233971443  0.8664157687428903  0.4811068485574716
 
  0.00000000E+00  0.00000000E+00  0.00000000E+00
  0.00000000E+00  0.00000000E+00  0.00000000E+00
  0.00000000E+00  0.00000000E+00  0.00000000E+00
  0.00000000E+00  0.00000000E+00  0.00000000E+00
  0.00000000E+00  0.00000000E+00  0.00000000E+00
  0.00000000E+00  0.00000000E+00  0.00000000E+00
  0.00000000E+00  0.00000000E+00  0.00000000E+00
  0.00000000E+00  0.00000000E+00  0.00000000E+00
  0.00000000E+00  0.00000000E+00  0.00000000E+00
  0.00000000E+00  0.00000000E+00  0.00000000E+00
  0.00000000E+00  0.00000000E+00  0.00000000E+00
  0.00000000E+00  0.00000000E+00  0.00000000E+00
  0.00000000E+00  0.00000000E+00  0.00000000E+00
  0.00000000E+00  0.00000000E+00  0.00000000E+00
  0.00000000E+00  0.00000000E+00  0.00000000E+00
  0.00000000E+00  0.00000000E+00  0.00000000E+00
  0.00000000E+00  0.00000000E+00  0.00000000E+00
  0.00000000E+00  0.00000000E+00  0.00000000E+00
  0.00000000E+00  0.00000000E+00  0.00000000E+00
  0.00000000E+00  0.00000000E+00  0.00000000E+00
  0.00000000E+00  0.00000000E+00  0.00000000E+00
  0.00000000E+00  0.00000000E+00  0.00000000E+00
  0.00000000E+00  0.00000000E+00  0.00000000E+00
  0.00000000E+00  0.00000000E+00  0.00000000E+00
  0.00000000E+00  0.00000000E+00  0.00000000E+00
  0.00000000E+00  0.00000000E+00  0.00000000E+00
  0.00000000E+00  0.00000000E+00  0.00000000E+00
  0.00000000E+00  0.00000000E+00  0.00000000E+00
  0.00000000E+00  0.00000000E+00  0.00000000E+00
  0.00000000E+00  0.00000000E+00  0.00000000E+00
  0.00000000E+00  0.00000000E+00  0.00000000E+00
  0.00000000E+00  0.00000000E+00  0.00000000E+00
  0.00000000E+00  0.00000000E+00  0.00000000E+00
  0.00000000E+00  0.00000000E+00  0.00000000E+00
  0.00000000E+00  0.00000000E+00  0.00000000E+00
  0.00000000E+00  0.00000000E+00  0.00000000E+00
  0.00000000E+00  0.00000000E+00  0.00000000E+00
  0.00000000E+00  0.00000000E+00  0.00000000E+00
  0.00000000E+00  0.00000000E+00  0.00000000E+00
  0.00000000E+00  0.00000000E+00  0.00000000E+00
  0.00000000E+00  0.00000000E+00  0.00000000E+00
  0.00000000E+00  0.00000000E+00  0.00000000E+00
  0.00000000E+00  0.00000000E+00  0.00000000E+00
  0.00000000E+00  0.00000000E+00  0.00000000E+00
  0.00000000E+00  0.00000000E+00  0.00000000E+00
  0.00000000E+00  0.00000000E+00  0.00000000E+00
  0.00000000E+00  0.00000000E+00  0.00000000E+00
  0.00000000E+00  0.00000000E+00  0.00000000E+00
