MAPbI3                                  
   1.00000000000000     
     8.0691518707578975    0.0006885538258422    0.0395858158541318
     0.0006320037892325    9.3640008337212262    0.0422659444306396
     0.0571596624332046    0.0536558356996090   13.2582188568308776
   Pb   I    C    N    H 
     4    12     4     4    24
Direct
  0.2535753362818155  0.2289152738943265  0.2517211162192994
  0.2479744963771212  0.2307027220093621  0.7531853398353290
  0.7529962137074563  0.7314780344277768  0.2509355310202911
  0.7481928229793258  0.7328883141283676  0.7505934458647608
  0.0931736007355494  0.9086263827706347  0.2434071351356866
  0.9179061328847067  0.0410369606367171  0.7701219672225106
  0.2499170959979613  0.2165417591952704  0.0048334231776823
  0.2455440406146769  0.2183717198117183  0.5050041435181385
  0.4243070441026855  0.5371027252164305  0.2736084411861854
  0.5810109662238435  0.4171403610612139  0.7478065675526381
  0.5869930907323961  0.0424785718324153  0.2709526853424014
  0.9206385021401545  0.4155525011074603  0.2479182486000361
  0.0772945710924905  0.5393220228125978  0.7670192380692665
  0.4138438771959922  0.9142383601093743  0.7496628277693896
  0.7406775263962019  0.7229093812345943  0.0039866718426300
  0.7553343888400009  0.7224787093711184  0.5037843550574320
  0.2504012356786701  0.6789232831193258  0.0228262892479687
  0.7406153530638646  0.2060585370856053  0.0210494236005439
  0.7547151674473128  0.1996156752936321  0.5253456228217749
  0.2422799792108293  0.7064235682511472  0.5247536175546434
  0.1802622628677823  0.8121785019247356  0.9749973581778711
  0.8261935479335182  0.3292177933110154  0.9686617315454037
  0.6760559844885231  0.3253493661517673  0.4728127739079475
  0.3276379704284265  0.8270768616255860  0.4693445032806411
  0.3723478220832031  0.7041536825969489  0.0525333425036701
  0.2595760077794717  0.5968549925838136  0.9649947708203596
  0.1672524911680037  0.6448784726027109  0.0838266445609187
  0.0564704666014173  0.7977545744859144  0.9574889628685967
  0.1856804139830705  0.8977036830340145  0.0236419592187943
  0.2443230917045925  0.8400982067137900  0.9092748714161252
  0.7621617909667610  0.1099180791560775  0.9766814549863401
  0.7920275842321024  0.1945910467481745  0.0964315030429955
  0.6083862295618384  0.2297997339350650  0.0255080631800178
  0.9536227564151258  0.3133857012209452  0.9674812822585440
  0.8035688125253457  0.4251340584563475  0.0045296655659356
  0.7853477433369040  0.3411215974108937  0.8950688547232969
  0.6828033284247048  0.1752034254074278  0.5933593672291630
  0.7543953300708678  0.1093217103638404  0.4736985616671948
  0.8812699376355762  0.2285438218270185  0.5448585853832040
  0.6874277075269525  0.4178374317179011  0.5142895439161055
  0.7308899502783127  0.3446540308856162  0.4027803106847161
  0.5503512477031489  0.3076830355745286  0.4627360825336967
  0.2450014389544322  0.6123530381035496  0.4765281122606165
  0.3080024417109701  0.6861142862893453  0.5948924473519300
  0.1147674617274918  0.7383740604936788  0.5405751466504145
  0.4540463094882262  0.8077236202251048  0.4634019305591618
  0.3126765302562168  0.9234077186663600  0.5060915790120721
  0.2800638984439668  0.8404586051186350  0.3973425000556369
 
  0.00000000E+00  0.00000000E+00  0.00000000E+00
  0.00000000E+00  0.00000000E+00  0.00000000E+00
  0.00000000E+00  0.00000000E+00  0.00000000E+00
  0.00000000E+00  0.00000000E+00  0.00000000E+00
  0.00000000E+00  0.00000000E+00  0.00000000E+00
  0.00000000E+00  0.00000000E+00  0.00000000E+00
  0.00000000E+00  0.00000000E+00  0.00000000E+00
  0.00000000E+00  0.00000000E+00  0.00000000E+00
  0.00000000E+00  0.00000000E+00  0.00000000E+00
  0.00000000E+00  0.00000000E+00  0.00000000E+00
  0.00000000E+00  0.00000000E+00  0.00000000E+00
  0.00000000E+00  0.00000000E+00  0.00000000E+00
  0.00000000E+00  0.00000000E+00  0.00000000E+00
  0.00000000E+00  0.00000000E+00  0.00000000E+00
  0.00000000E+00  0.00000000E+00  0.00000000E+00
  0.00000000E+00  0.00000000E+00  0.00000000E+00
  0.00000000E+00  0.00000000E+00  0.00000000E+00
  0.00000000E+00  0.00000000E+00  0.00000000E+00
  0.00000000E+00  0.00000000E+00  0.00000000E+00
  0.00000000E+00  0.00000000E+00  0.00000000E+00
  0.00000000E+00  0.00000000E+00  0.00000000E+00
  0.00000000E+00  0.00000000E+00  0.00000000E+00
  0.00000000E+00  0.00000000E+00  0.00000000E+00
  0.00000000E+00  0.00000000E+00  0.00000000E+00
  0.00000000E+00  0.00000000E+00  0.00000000E+00
  0.00000000E+00  0.00000000E+00  0.00000000E+00
  0.00000000E+00  0.00000000E+00  0.00000000E+00
  0.00000000E+00  0.00000000E+00  0.00000000E+00
  0.00000000E+00  0.00000000E+00  0.00000000E+00
  0.00000000E+00  0.00000000E+00  0.00000000E+00
  0.00000000E+00  0.00000000E+00  0.00000000E+00
  0.00000000E+00  0.00000000E+00  0.00000000E+00
  0.00000000E+00  0.00000000E+00  0.00000000E+00
  0.00000000E+00  0.00000000E+00  0.00000000E+00
  0.00000000E+00  0.00000000E+00  0.00000000E+00
  0.00000000E+00  0.00000000E+00  0.00000000E+00
  0.00000000E+00  0.00000000E+00  0.00000000E+00
  0.00000000E+00  0.00000000E+00  0.00000000E+00
  0.00000000E+00  0.00000000E+00  0.00000000E+00
  0.00000000E+00  0.00000000E+00  0.00000000E+00
  0.00000000E+00  0.00000000E+00  0.00000000E+00
  0.00000000E+00  0.00000000E+00  0.00000000E+00
  0.00000000E+00  0.00000000E+00  0.00000000E+00
  0.00000000E+00  0.00000000E+00  0.00000000E+00
  0.00000000E+00  0.00000000E+00  0.00000000E+00
  0.00000000E+00  0.00000000E+00  0.00000000E+00
  0.00000000E+00  0.00000000E+00  0.00000000E+00
  0.00000000E+00  0.00000000E+00  0.00000000E+00
