MAPbI3                                  
   1.00000000000000     
     8.7430025757581422   -0.0014654656203063    0.0395426581413286
    -0.0014503565522683    8.9581400961707196   -0.0863579805143043
     0.0586848751552057   -0.1271171721573601   13.0954110012198139
   Pb   I    C    N    H 
     4    12     4     4    24
Direct
  0.2446042125874874  0.2305277753248735  0.2547056340620759
  0.2496335620566433  0.2358795433528581  0.7569772832171698
  0.7567668372611709  0.7316127753500568  0.2549813672340213
  0.7421310153059287  0.7364478155549120  0.7576521822622904
  0.0833596409681429  0.8993552974532185  0.2500286118443216
  0.9387710821357640  0.0374347348714552  0.7687267348945326
  0.2373930105387186  0.2251753303601986  0.0096737682904325
  0.2539099705582540  0.2192325755654187  0.5098520694822964
  0.4409570945782679  0.5350089540624038  0.2710447282916117
  0.5645596610395682  0.4175301220740729  0.7581996516279325
  0.5634936821225950  0.0367261288828943  0.2688575529047155
  0.9256115634816388  0.4052749140515249  0.2577143107990272
  0.0536309286334304  0.5397164490554871  0.7673477271233692
  0.4276040608527300  0.9185825347335197  0.7650251031506304
  0.7523768018659287  0.7215081540781745  0.0098811629078192
  0.7472353559388262  0.7272201458488793  0.5105533118011274
  0.2791804039297143  0.6818145299241414  0.0113650558626327
  0.7144178527411619  0.2144280799157709  0.0155171346696672
  0.7718829560857955  0.2146211455885820  0.5247809607529785
  0.2287944903405942  0.7150541291114102  0.5250197629525732
  0.1771356093046168  0.8057079687750619  0.9760978138897651
  0.8287672559658098  0.3174399628843590  0.9667773041113058
  0.6659066062718388  0.3203484069237356  0.4718943457785287
  0.3375277062226656  0.8174194417796160  0.4701966336742622
  0.3774518720459454  0.7320017653940407  0.0498120651035781
  0.3159810699551636  0.6161346304915899  0.9444556526957110
  0.2141054588080374  0.6131368104938241  0.0643168262049485
  0.0797160155494126  0.7634122816589396  0.9421090731270103
  0.1435464298236301  0.8733608437372785  0.0372149971606270
  0.2336707832627849  0.8701423048549835  0.9227066875539843
  0.7360818129205633  0.1009458749359170  0.9867872193426797
  0.7290367160356146  0.2212685873241787  0.0981244095821478
  0.5997304766471480  0.2505731009367655  0.9946325587275576
  0.9402745097708541  0.2896224816443604  0.9854300965136066
  0.8104432575582973  0.4277256736861620  0.9894738476075999
  0.8205362848341545  0.3123732659849672  0.8881539095696703
  0.7418599603223622  0.2145245808335287  0.6057814307633816
  0.7578244061444102  0.1034664100873156  0.4902599945082289
  0.8891572586763056  0.2539524801274060  0.5139010256908663
  0.6797629129404188  0.4292263965203083  0.4986214667134412
  0.6881577199158431  0.3205071834311100  0.3941851414091336
  0.5521206495474176  0.2910798185902634  0.4826202706576358
  0.2515764551041190  0.6004660319774482  0.4988840583897424
  0.2480302418691542  0.7275251980581370  0.6069234001178360
  0.1119576948616331  0.7471888320770119  0.5062217489810077
  0.4507435902633279  0.7929860028894873  0.4864041114015059
  0.3180530228779627  0.9284936556068041  0.4904618009663791
  0.3245320394781849  0.8075148731355301  0.3919959956266386
 
  0.00000000E+00  0.00000000E+00  0.00000000E+00
  0.00000000E+00  0.00000000E+00  0.00000000E+00
  0.00000000E+00  0.00000000E+00  0.00000000E+00
  0.00000000E+00  0.00000000E+00  0.00000000E+00
  0.00000000E+00  0.00000000E+00  0.00000000E+00
  0.00000000E+00  0.00000000E+00  0.00000000E+00
  0.00000000E+00  0.00000000E+00  0.00000000E+00
  0.00000000E+00  0.00000000E+00  0.00000000E+00
  0.00000000E+00  0.00000000E+00  0.00000000E+00
  0.00000000E+00  0.00000000E+00  0.00000000E+00
  0.00000000E+00  0.00000000E+00  0.00000000E+00
  0.00000000E+00  0.00000000E+00  0.00000000E+00
  0.00000000E+00  0.00000000E+00  0.00000000E+00
  0.00000000E+00  0.00000000E+00  0.00000000E+00
  0.00000000E+00  0.00000000E+00  0.00000000E+00
  0.00000000E+00  0.00000000E+00  0.00000000E+00
  0.00000000E+00  0.00000000E+00  0.00000000E+00
  0.00000000E+00  0.00000000E+00  0.00000000E+00
  0.00000000E+00  0.00000000E+00  0.00000000E+00
  0.00000000E+00  0.00000000E+00  0.00000000E+00
  0.00000000E+00  0.00000000E+00  0.00000000E+00
  0.00000000E+00  0.00000000E+00  0.00000000E+00
  0.00000000E+00  0.00000000E+00  0.00000000E+00
  0.00000000E+00  0.00000000E+00  0.00000000E+00
  0.00000000E+00  0.00000000E+00  0.00000000E+00
  0.00000000E+00  0.00000000E+00  0.00000000E+00
  0.00000000E+00  0.00000000E+00  0.00000000E+00
  0.00000000E+00  0.00000000E+00  0.00000000E+00
  0.00000000E+00  0.00000000E+00  0.00000000E+00
  0.00000000E+00  0.00000000E+00  0.00000000E+00
  0.00000000E+00  0.00000000E+00  0.00000000E+00
  0.00000000E+00  0.00000000E+00  0.00000000E+00
  0.00000000E+00  0.00000000E+00  0.00000000E+00
  0.00000000E+00  0.00000000E+00  0.00000000E+00
  0.00000000E+00  0.00000000E+00  0.00000000E+00
  0.00000000E+00  0.00000000E+00  0.00000000E+00
  0.00000000E+00  0.00000000E+00  0.00000000E+00
  0.00000000E+00  0.00000000E+00  0.00000000E+00
  0.00000000E+00  0.00000000E+00  0.00000000E+00
  0.00000000E+00  0.00000000E+00  0.00000000E+00
  0.00000000E+00  0.00000000E+00  0.00000000E+00
  0.00000000E+00  0.00000000E+00  0.00000000E+00
  0.00000000E+00  0.00000000E+00  0.00000000E+00
  0.00000000E+00  0.00000000E+00  0.00000000E+00
  0.00000000E+00  0.00000000E+00  0.00000000E+00
  0.00000000E+00  0.00000000E+00  0.00000000E+00
  0.00000000E+00  0.00000000E+00  0.00000000E+00
  0.00000000E+00  0.00000000E+00  0.00000000E+00
