MAPbI3                                  
   1.00000000000000     
     6.7368987685847461    0.0013445802802156    0.0031919981265825
    -0.0009582648961605    9.9220490967589257    0.5977879993277904
    -0.0095810300003567    0.8004612466139812   14.9990725700554197
   Pb   I    C    N    H 
     4    12     4     4    24
Direct
  0.2388942205213225  0.2477252319232504  0.2448693428891940
  0.2610991410953495  0.2477736606057265  0.7448051063563940
  0.7255206477996733  0.7516969926670327  0.2231769891259126
  0.7743374578600654  0.7519521971356676  0.7231679022762372
  0.1469541018126840  0.9080544149569140  0.2167028227160693
  0.8617621127479779  0.0917585394213813  0.7994986278539318
  0.3374399921282540  0.2992749669193709  0.0448506959084888
  0.1629452588847870  0.2993344129495701  0.5447152901295526
  0.3789839951755331  0.5295810033453516  0.3140982226736814
  0.6302740478089858  0.4678753937315956  0.6835970718769873
  0.6383412361889318  0.0916175584741273  0.2995451176466281
  0.8685832089892885  0.4674192598219598  0.1835974027791291
  0.1205649298945387  0.5299281143086501  0.8141886791067522
  0.3530118487692650  0.9079615955626408  0.7171539359594907
  0.6836155700103698  0.8154265764336768  0.0178975240434634
  0.8160048889650646  0.8152589096482590  0.5179800212355479
  0.1971155022662734  0.6790282388692664  0.0191215866728028
  0.8289393137258857  0.1728428020514525  0.0352247338375411
  0.6718035786240087  0.1721383614636241  0.5356003502264530
  0.3031259911812132  0.6788787554353661  0.5186700869869845
  0.1906743976018212  0.8129861771880849  0.9607680872897659
  0.8320878476203460  0.3053555590826094  0.9761316090929280
  0.6688189768422513  0.3046078194845054  0.4764028940766053
  0.3078259129811949  0.8118347578914490  0.4591470403819524
  0.2085893351551944  0.6996036877191120  0.0887470576290166
  0.3251406171781403  0.6221265158056615  0.9998660711618826
  0.0601212866478127  0.6251224105969199  0.0084840884717665
  0.2067393730364283  0.8008765999347884  0.8935513468905621
  0.0560994978106393  0.8607755179750054  0.9688331093253363
  0.3067557515456070  0.8735686702284219  0.9773459177541596
  0.7010897002688579  0.1150655914285470  0.0168985330255472
  0.9663722634230980  0.1192450352775586  0.0242475819019881
  0.8169511220760640  0.1935575093642663  0.1048416633231772
  0.8275681832153455  0.2882584071857004  0.9093423490853886
  0.9610399481805780  0.3582882618869447  0.9858536440461151
  0.7106254656583642  0.3631764789955872  0.9898371358063193
  0.5344736025157052  0.1185074510361226  0.5245241878978605
  0.7997983482675024  0.1143743381370047  0.5174276811576982
  0.6835491501888868  0.1930173748910206  0.6051834208213887
  0.5400890198236824  0.3577669445234196  0.4861409096049000
  0.7905391055831643  0.3622502646339342  0.4900354315647075
  0.6731494900782342  0.2873954067106961  0.4096261586947629
  0.1751589346478443  0.6211191193757546  0.5003540026426289
  0.4403287469315931  0.6251466187588590  0.5081600796155299
  0.2924928665513949  0.7009675361476279  0.5880240268166289
  0.2915828097519241  0.7983126513074039  0.3921562185379249
  0.4418386247771184  0.8605859685481179  0.4666102386399217
  0.1911845771916713  0.8722763401598702  0.4753460044423568
 
  0.00000000E+00  0.00000000E+00  0.00000000E+00
  0.00000000E+00  0.00000000E+00  0.00000000E+00
  0.00000000E+00  0.00000000E+00  0.00000000E+00
  0.00000000E+00  0.00000000E+00  0.00000000E+00
  0.00000000E+00  0.00000000E+00  0.00000000E+00
  0.00000000E+00  0.00000000E+00  0.00000000E+00
  0.00000000E+00  0.00000000E+00  0.00000000E+00
  0.00000000E+00  0.00000000E+00  0.00000000E+00
  0.00000000E+00  0.00000000E+00  0.00000000E+00
  0.00000000E+00  0.00000000E+00  0.00000000E+00
  0.00000000E+00  0.00000000E+00  0.00000000E+00
  0.00000000E+00  0.00000000E+00  0.00000000E+00
  0.00000000E+00  0.00000000E+00  0.00000000E+00
  0.00000000E+00  0.00000000E+00  0.00000000E+00
  0.00000000E+00  0.00000000E+00  0.00000000E+00
  0.00000000E+00  0.00000000E+00  0.00000000E+00
  0.00000000E+00  0.00000000E+00  0.00000000E+00
  0.00000000E+00  0.00000000E+00  0.00000000E+00
  0.00000000E+00  0.00000000E+00  0.00000000E+00
  0.00000000E+00  0.00000000E+00  0.00000000E+00
  0.00000000E+00  0.00000000E+00  0.00000000E+00
  0.00000000E+00  0.00000000E+00  0.00000000E+00
  0.00000000E+00  0.00000000E+00  0.00000000E+00
  0.00000000E+00  0.00000000E+00  0.00000000E+00
  0.00000000E+00  0.00000000E+00  0.00000000E+00
  0.00000000E+00  0.00000000E+00  0.00000000E+00
  0.00000000E+00  0.00000000E+00  0.00000000E+00
  0.00000000E+00  0.00000000E+00  0.00000000E+00
  0.00000000E+00  0.00000000E+00  0.00000000E+00
  0.00000000E+00  0.00000000E+00  0.00000000E+00
  0.00000000E+00  0.00000000E+00  0.00000000E+00
  0.00000000E+00  0.00000000E+00  0.00000000E+00
  0.00000000E+00  0.00000000E+00  0.00000000E+00
  0.00000000E+00  0.00000000E+00  0.00000000E+00
  0.00000000E+00  0.00000000E+00  0.00000000E+00
  0.00000000E+00  0.00000000E+00  0.00000000E+00
  0.00000000E+00  0.00000000E+00  0.00000000E+00
  0.00000000E+00  0.00000000E+00  0.00000000E+00
  0.00000000E+00  0.00000000E+00  0.00000000E+00
  0.00000000E+00  0.00000000E+00  0.00000000E+00
  0.00000000E+00  0.00000000E+00  0.00000000E+00
  0.00000000E+00  0.00000000E+00  0.00000000E+00
  0.00000000E+00  0.00000000E+00  0.00000000E+00
  0.00000000E+00  0.00000000E+00  0.00000000E+00
  0.00000000E+00  0.00000000E+00  0.00000000E+00
  0.00000000E+00  0.00000000E+00  0.00000000E+00
  0.00000000E+00  0.00000000E+00  0.00000000E+00
  0.00000000E+00  0.00000000E+00  0.00000000E+00
