MAPbI3                                  
   1.00000000000000     
    10.5680123047798737    0.1507063596929944   -0.0555083585006174
     0.1256700559837463    8.3393951294907964   -0.1813372676293978
    -0.0736581754593278   -0.2664562258720289   12.5146258710550207
   Pb   I    C    N    H 
     4    12     4     4    24
Direct
  0.2858041892963019  0.2443278039260177  0.2610130025757682
  0.3019667356428868  0.2378731249191849  0.7476205203587479
  0.8048526497902240  0.7359455828016177  0.2476433129950452
  0.7866657197801995  0.7455745245431550  0.7602789501387109
  0.0622665858098613  0.9059764918599376  0.2335239923999281
  0.9621258835897233  0.0335702141140119  0.7842308770867445
  0.2847206112013280  0.2264670633089952  0.0037225681115439
  0.1916326595569806  0.2206342491500919  0.5056033759487424
  0.4614996913837172  0.5322906874103606  0.2845727690758706
  0.5546869765962184  0.4177819662374504  0.7306409311142947
  0.5236524225576283  0.0199410107946070  0.2921975899447410
  0.9375535061148195  0.4009598471237307  0.2381155378635718
  0.0245673033372445  0.5210353928418350  0.7925279380768796
  0.4444157928850038  0.9093996227681624  0.7371705005852999
  0.6957353957156112  0.7222532086360308  0.0055904639862472
  0.7878614114150512  0.7228345665031750  0.5030655839925047
  0.3104205725318204  0.7235385863585517  0.0114815479331297
  0.6841724993438397  0.2209934182195401  0.0162829833347316
  0.8028158534151270  0.2193883891408605  0.5148343030492952
  0.1922066134871449  0.7168065062544983  0.5211890655385335
  0.1903039986648501  0.8041701407192565  0.9721383236796884
  0.8012766975861909  0.3002893642011943  0.9793331877602559
  0.6867810646559050  0.3047862064668770  0.4717516733018030
  0.3048706627609808  0.8011687253469989  0.4804486938389478
  0.3564532419668738  0.8057731947962968  0.0689886530051374
  0.3719332655020220  0.6967202851977341  0.9430883587058272
  0.2857497688007731  0.6134560785298586  0.0494632041805945
  0.1433022134146250  0.7321308126443229  0.9155100911972396
  0.1297838908293686  0.8298987446448258  0.0359400081329546
  0.2086569386703821  0.9125654465603588  0.9393875255217169
  0.7121519216147227  0.1055999549687833  0.0487141611523202
  0.6391780137265772  0.2995794312319883  0.0777757684711346
  0.6204394073474395  0.2036245919960193  0.9476990706134321
  0.8641479353284517  0.3179867656101869  0.0430279955106594
  0.7790274418319377  0.4129623301824048  0.9517938332031238
  0.8470802420913985  0.2319225839149066  0.9191021990769633
  0.8486450102984706  0.2997885866671781  0.5736308724560215
  0.7732234433247659  0.1108498359649498  0.5521186680290744
  0.8666660911419519  0.1893531001254672  0.4484619191857870
  0.7097758783515598  0.4114129220267002  0.4387542106756530
  0.6399733817692226  0.2339485430184950  0.4143245688036719
  0.6244409042731176  0.3344460450130629  0.5336519787970437
  0.2249521954166836  0.6026123174351697  0.5526817259690491
  0.1479432597654015  0.7933844973690382  0.5841279298627905
  0.1258379353883685  0.6966115779925516  0.4547288644695509
  0.3698741236900912  0.8219781708835158  0.5421126888909856
  0.2781228108941538  0.9127173596817670  0.4532729444073436
  0.3497871874430005  0.7343661298982677  0.4190130669909387
 
  0.00000000E+00  0.00000000E+00  0.00000000E+00
  0.00000000E+00  0.00000000E+00  0.00000000E+00
  0.00000000E+00  0.00000000E+00  0.00000000E+00
  0.00000000E+00  0.00000000E+00  0.00000000E+00
  0.00000000E+00  0.00000000E+00  0.00000000E+00
  0.00000000E+00  0.00000000E+00  0.00000000E+00
  0.00000000E+00  0.00000000E+00  0.00000000E+00
  0.00000000E+00  0.00000000E+00  0.00000000E+00
  0.00000000E+00  0.00000000E+00  0.00000000E+00
  0.00000000E+00  0.00000000E+00  0.00000000E+00
  0.00000000E+00  0.00000000E+00  0.00000000E+00
  0.00000000E+00  0.00000000E+00  0.00000000E+00
  0.00000000E+00  0.00000000E+00  0.00000000E+00
  0.00000000E+00  0.00000000E+00  0.00000000E+00
  0.00000000E+00  0.00000000E+00  0.00000000E+00
  0.00000000E+00  0.00000000E+00  0.00000000E+00
  0.00000000E+00  0.00000000E+00  0.00000000E+00
  0.00000000E+00  0.00000000E+00  0.00000000E+00
  0.00000000E+00  0.00000000E+00  0.00000000E+00
  0.00000000E+00  0.00000000E+00  0.00000000E+00
  0.00000000E+00  0.00000000E+00  0.00000000E+00
  0.00000000E+00  0.00000000E+00  0.00000000E+00
  0.00000000E+00  0.00000000E+00  0.00000000E+00
  0.00000000E+00  0.00000000E+00  0.00000000E+00
  0.00000000E+00  0.00000000E+00  0.00000000E+00
  0.00000000E+00  0.00000000E+00  0.00000000E+00
  0.00000000E+00  0.00000000E+00  0.00000000E+00
  0.00000000E+00  0.00000000E+00  0.00000000E+00
  0.00000000E+00  0.00000000E+00  0.00000000E+00
  0.00000000E+00  0.00000000E+00  0.00000000E+00
  0.00000000E+00  0.00000000E+00  0.00000000E+00
  0.00000000E+00  0.00000000E+00  0.00000000E+00
  0.00000000E+00  0.00000000E+00  0.00000000E+00
  0.00000000E+00  0.00000000E+00  0.00000000E+00
  0.00000000E+00  0.00000000E+00  0.00000000E+00
  0.00000000E+00  0.00000000E+00  0.00000000E+00
  0.00000000E+00  0.00000000E+00  0.00000000E+00
  0.00000000E+00  0.00000000E+00  0.00000000E+00
  0.00000000E+00  0.00000000E+00  0.00000000E+00
  0.00000000E+00  0.00000000E+00  0.00000000E+00
  0.00000000E+00  0.00000000E+00  0.00000000E+00
  0.00000000E+00  0.00000000E+00  0.00000000E+00
  0.00000000E+00  0.00000000E+00  0.00000000E+00
  0.00000000E+00  0.00000000E+00  0.00000000E+00
  0.00000000E+00  0.00000000E+00  0.00000000E+00
  0.00000000E+00  0.00000000E+00  0.00000000E+00
  0.00000000E+00  0.00000000E+00  0.00000000E+00
  0.00000000E+00  0.00000000E+00  0.00000000E+00
