MAPbI3                                  
   1.00000000000000     
     8.9195899095854685    0.0002997057657265    0.0320018312170894
     0.0003005564139398    8.8599924621159207   -0.0917166901305267
     0.0476061530998828   -0.1340244171858229   13.0669687371709919
   Pb   I    C    N    H 
     4    12     4     4    24
Direct
  0.2439200473786608  0.2311738071921982  0.2542849154244868
  0.2503689593942628  0.2353779118650481  0.7568214870169887
  0.7572403035717735  0.7322039145500905  0.2550259394371136
  0.7423341277295844  0.7357624656471108  0.7576991463878548
  0.0801608356569842  0.8999254814946194  0.2500979883475407
  0.9426272198580720  0.0378703918305788  0.7681273424828500
  0.2351761152303174  0.2262275560481618  0.0094884850421020
  0.2557947356116319  0.2220733935597923  0.5094133484221546
  0.4456689075434837  0.5347440789820792  0.2699381770493178
  0.5623295037236579  0.4175869128691715  0.7583406715294676
  0.5587786296201531  0.0365463926964340  0.2687472124320503
  0.9272550938037372  0.4048553333298961  0.2580142224689874
  0.0510198763347401  0.5399564192088248  0.7670945437859640
  0.4296521042453390  0.9176463008197746  0.7647015014705177
  0.7535864720846137  0.7239737312799969  0.0097437038937429
  0.7453260861005652  0.7283910603411561  0.5104788199088642
  0.2825374335325534  0.6864302655212873  0.0135162125581160
  0.7141807298625075  0.2144034399808703  0.0154986184340570
  0.7712808001914854  0.2146496960448698  0.5250008796080754
  0.2283333014293079  0.7143300927711174  0.5250381082605270
  0.1772162904949195  0.8050634526445052  0.9749780654874072
  0.8282392641355834  0.3165032293415317  0.9669615124208093
  0.6648247675924257  0.3188279542764323  0.4717177517755723
  0.3371745994097499  0.8151575463021549  0.4700159012533330
  0.3754814721535720  0.7433708904171284  0.0521958847519478
  0.3232530101782765  0.6195346971236709  0.9478630767019282
  0.2211300924639365  0.6158438737280153  0.0669894385559046
  0.0867090773329889  0.7561127902536956  0.9381884607002687
  0.1373519267549424  0.8720526981797960  0.0349991135547082
  0.2313753109801810  0.8729055009593467  0.9227034581359927
  0.7360210337250882  0.0986815866039050  0.9888630958334266
  0.7257357393495923  0.2241414236024399  0.0984260317812009
  0.6026199037036628  0.2504001806756326  0.9920664814319554
  0.9366908964848611  0.2889763209900763  0.9879785847490016
  0.8096594176371869  0.4288276397759884  0.9876737601530565
  0.8232651789993599  0.3081932168740454  0.8880939219720633
  0.7442709425393899  0.2173197422571953  0.6065340476904436
  0.7571222850764652  0.1009697129467553  0.4924307902200855
  0.8855746913301779  0.2547295815273685  0.5118437817054092
  0.6788444533421036  0.4300029686864860  0.4963459676635184
  0.6833793969855742  0.3156613007982618  0.3935227395898006
  0.5538577749398352  0.2892768436162213  0.4845781628922670
  0.2500095858019440  0.5975571199757487  0.5005550940162126
  0.2455154031396810  0.7291311593696983  0.6071881405879753
  0.1145714402230456  0.7474216024362731  0.5044143126025319
  0.4474350958430288  0.7904470490414839  0.4881335307915060
  0.3182299017424838  0.9282050729979499  0.4884238052838844
  0.3268717647365597  0.8022521985651184  0.3915917637370508
 
  0.00000000E+00  0.00000000E+00  0.00000000E+00
  0.00000000E+00  0.00000000E+00  0.00000000E+00
  0.00000000E+00  0.00000000E+00  0.00000000E+00
  0.00000000E+00  0.00000000E+00  0.00000000E+00
  0.00000000E+00  0.00000000E+00  0.00000000E+00
  0.00000000E+00  0.00000000E+00  0.00000000E+00
  0.00000000E+00  0.00000000E+00  0.00000000E+00
  0.00000000E+00  0.00000000E+00  0.00000000E+00
  0.00000000E+00  0.00000000E+00  0.00000000E+00
  0.00000000E+00  0.00000000E+00  0.00000000E+00
  0.00000000E+00  0.00000000E+00  0.00000000E+00
  0.00000000E+00  0.00000000E+00  0.00000000E+00
  0.00000000E+00  0.00000000E+00  0.00000000E+00
  0.00000000E+00  0.00000000E+00  0.00000000E+00
  0.00000000E+00  0.00000000E+00  0.00000000E+00
  0.00000000E+00  0.00000000E+00  0.00000000E+00
  0.00000000E+00  0.00000000E+00  0.00000000E+00
  0.00000000E+00  0.00000000E+00  0.00000000E+00
  0.00000000E+00  0.00000000E+00  0.00000000E+00
  0.00000000E+00  0.00000000E+00  0.00000000E+00
  0.00000000E+00  0.00000000E+00  0.00000000E+00
  0.00000000E+00  0.00000000E+00  0.00000000E+00
  0.00000000E+00  0.00000000E+00  0.00000000E+00
  0.00000000E+00  0.00000000E+00  0.00000000E+00
  0.00000000E+00  0.00000000E+00  0.00000000E+00
  0.00000000E+00  0.00000000E+00  0.00000000E+00
  0.00000000E+00  0.00000000E+00  0.00000000E+00
  0.00000000E+00  0.00000000E+00  0.00000000E+00
  0.00000000E+00  0.00000000E+00  0.00000000E+00
  0.00000000E+00  0.00000000E+00  0.00000000E+00
  0.00000000E+00  0.00000000E+00  0.00000000E+00
  0.00000000E+00  0.00000000E+00  0.00000000E+00
  0.00000000E+00  0.00000000E+00  0.00000000E+00
  0.00000000E+00  0.00000000E+00  0.00000000E+00
  0.00000000E+00  0.00000000E+00  0.00000000E+00
  0.00000000E+00  0.00000000E+00  0.00000000E+00
  0.00000000E+00  0.00000000E+00  0.00000000E+00
  0.00000000E+00  0.00000000E+00  0.00000000E+00
  0.00000000E+00  0.00000000E+00  0.00000000E+00
  0.00000000E+00  0.00000000E+00  0.00000000E+00
  0.00000000E+00  0.00000000E+00  0.00000000E+00
  0.00000000E+00  0.00000000E+00  0.00000000E+00
  0.00000000E+00  0.00000000E+00  0.00000000E+00
  0.00000000E+00  0.00000000E+00  0.00000000E+00
  0.00000000E+00  0.00000000E+00  0.00000000E+00
  0.00000000E+00  0.00000000E+00  0.00000000E+00
  0.00000000E+00  0.00000000E+00  0.00000000E+00
  0.00000000E+00  0.00000000E+00  0.00000000E+00
